262147 4526
262151 250519
9 9964
10 23
262155 88
11 88
13 49298
13 16208
16 426674
16 151033
16 174569
16 142215
16 270830
16 279419
16 400856
17 87284
17 165288
262164 88
262168 327408
25 80
26 240066
26 169324
26 143869
26 78122
26 355498
26 3879
26 3489
26 41826
26 2170
26 71718
26 2423
26 226687
26 270619
26 381873
26 148752
26 371689
26 240303
26 159172
26 26124
26 152424
26 167432
26 26038
26 440139
26 20857
26 139260
26 141128
26 107662
26 21171
26 122643
26 179227
26 73449
26 142442
26 100292
26 372621
26 8737
26 85653
26 34121
26 40586
26 149682
26 228308
26 186604
26 63561
26 24387
26 32653
26 650
26 281833
26 39782
26 16251
26 315066
26 169096
26 272523
26 282787
23 288456
23 244570
23 412404
23 19742
23 39713
28 1988
34 139641
34 88
34 50841
34 25703
34 18907
34 95241
34 197587
34 94031
34 45594
34 29644
34 228370
34 386964
34 180159
38 2184
43 183302
43 119121
43 104593
43 220832
43 445047
43 23144
43 405758
43 145254
43 267653
43 85424
43 149333
43 366413
43 347546
43 418540
43 346300
43 157182
43 211563
43 256585
43 166038
43 396987
43 34425
43 239003
43 167353
43 302073
43 171798
43 294170
43 121913
43 25109
43 413172
43 110770
43 265655
43 306399
43 394076
43 252970
43 422220
43 277539
43 23983
43 209870
43 448059
43 370405
43 444204
43 255133
43 153668
43 367661
43 188384
43 379139
43 149205
43 199980
43 245102
43 372211
43 437850
43 236903
43 366165
43 402035
43 265698
43 222300
43 395972
43 163436
43 120535
43 3982
43 116055
43 295863
43 140826
43 421278
43 403812
43 72413
43 153052
43 252056
43 25022
43 113356
43 154743
43 265138
43 139369
43 151423
43 181956
43 255232
43 389307
43 357679
43 85075
43 378619
43 265831
43 116955
43 272321
43 5277
43 145072
43 150383
43 178892
43 227561
44 9616
44 86891
44 315261
44 231431
44 32393
44 45180
44 174627
44 248281
44 54468
44 15361
44 131931
44 180373
44 131242
44 77675
44 9492
48 5783
262197 19913
262197 57105
54 1390
262200 26551
262200 18168
57 137983
57 217531
57 109003
57 259666
57 174627
57 422762
57 141739
57 60274
57 369035
57 378310
262206 235
262206 3166
65 72141
65 56594
65 96148
65 357863
65 403226
72 511
72 84087
77 73445
77 53043
77 232749
77 144943
77 11811
77 81589
77 195690
77 135759
77 360259
77 82409
77 13078
77 36655
77 173737
77 10789
77 47966
77 53029
77 103479
77 97953
77 21125
77 7787
77 182678
77 405739
77 51638
77 31883
77 37780
77 2150
77 84179
77 154489
77 102755
77 443559
77 5890
77 112783
77 189696
77 3550
77 4506
77 426366
77 213646
77 2952
77 181522
77 902
77 228335
77 65757
77 28760
77 89751
77 38105
77 114596
77 29644
77 436909
77 10839
77 79607
77 92466
77 105944
77 193870
77 260839
77 132514
77 87096
77 50044
77 43387
77 17237
77 6070
77 100372
77 15319
77 65574
77 184703
77 164985
77 99716
77 238804
77 153393
77 97294
77 2099
77 10623
77 315111
77 232280
77 2777
77 108134
77 49766
77 17278
77 2308
77 20742
77 43125
77 727
77 132929
77 10979
77 113974
77 918
77 80144
77 95984
77 27907
77 296591
77 23547
77 146390
77 78517
77 16840
77 71311
77 222017
77 24012
77 100514
77 74964
77 5267
77 137985
77 686
77 8688
77 104281
77 1264
77 7633
77 51181
77 26706
77 12558
77 4223
77 6387
77 23994
77 45639
77 71118
77 7944
77 14738
77 4917
77 127656
77 43425
77 47183
77 90120
77 1921
77 47787
77 2963
77 149746
77 263871
77 21155
77 217619
77 1390
77 41821
77 19661
77 5145
77 75321
77 250828
77 25848
77 106152
77 22651
77 81070
77 60654
77 52640
77 167593
77 19018
77 108136
77 17504
77 25918
77 122548
77 272860
77 113450
77 2939
77 384256
77 20872
77 88325
77 21140
77 21170
77 67890
77 86501
77 29525
77 21302
77 21353
77 59289
79 88487
79 428295
79 109273
79 235443
79 181867
79 135905
79 5105
80 36916
80 214491
80 11634
80 93607
80 39589
80 455160
80 123501
80 186661
80 267802
80 54290
80 127503
80 71895
80 255837
80 150339
262223 88
262225 138
262224 14454
262226 1988
88 110598
88 12961
88 231425
88 255712
88 92796
88 319353
88 197725
88 13239
88 290275
88 1701
88 125097
88 426489
88 298569
88 176147
88 177685
88 33867
88 419743
88 406818
88 244446
88 421707
88 344675
88 179788
88 429144
88 99500
88 331521
88 403788
88 300507
88 125748
88 24690
88 104014
88 68654
88 230991
88 43276
88 342398
88 78411
88 225627
88 257376
88 255856
88 287640
88 271149
88 27854
88 86843
88 46279
88 217984
88 441714
88 50235
88 112860
88 208794
88 425416
88 8821
88 134785
88 265719
88 354913
88 104057
88 362195
88 193869
88 347630
88 194669
88 204549
88 172302
88 272731
88 222932
88 315664
88 32839
88 257896
88 140573
88 350460
88 213165
88 49086
88 298408
88 164527
88 198012
88 287121
88 41894
88 382550
88 145750
88 337203
88 25240
88 98158
88 137525
88 25640
88 324888
88 425526
88 272997
88 187664
88 290763
88 97430
88 26733
88 18515
88 381341
88 253625
88 195027
88 323804
88 188112
88 36977
88 115899
88 196361
88 100695
88 92693
88 228926
88 174915
88 157066
88 309301
88 86344
88 38703
88 185564
88 104970
88 363374
88 433004
88 441913
88 3437
88 116872
88 328036
88 38757
88 9066
88 421084
88 127833
88 142735
88 160146
88 287556
88 278075
88 51876
88 418262
88 259275
88 76233
88 353957
88 224432
88 205164
88 412460
88 85856
88 47927
88 436889
88 16260
88 30068
88 206760
88 199565
88 443174
88 193820
88 30364
88 98755
88 318832
88 205945
88 342756
88 58411
88 247101
88 64606
88 401366
88 260465
88 141218
88 37434
88 115676
88 234582
88 128546
88 208133
88 24971
88 56441
88 379549
88 394102
88 355203
88 184502
88 213644
88 326777
88 23213
88 42569
88 299969
88 232
88 118378
88 167750
88 55038
88 320746
88 359825
88 452701
88 351935
88 178976
88 86082
88 131974
88 58853
88 17111
88 254869
88 107449
88 367298
88 308478
88 100057
88 355072
88 27162
88 76172
88 455464
88 199968
88 19369
88 87283
88 425349
88 143861
88 80874
88 349561
88 274230
88 98392
88 18352
88 147841
88 196817
88 198571
88 168001
88 382318
88 348602
88 96503
88 192458
88 287621
88 219855
88 212129
88 152798
88 68313
88 152658
88 345323
88 35334
88 347626
88 152374
88 221695
88 22674
88 105447
88 131424
88 193649
88 316611
88 20305
88 450302
88 119407
88 6940
88 175396
88 144469
88 368866
88 307116
88 111181
88 329171
88 257869
88 22261
88 231666
88 328959
88 83412
88 452739
88 284290
88 376227
88 404617
88 435109
88 455647
88 253013
88 262883
88 53716
88 270126
88 248266
88 447934
88 57548
88 111235
88 9863
88 315083
88 293482
88 245001
88 418768
88 233319
88 227438
88 409272
88 315375
88 8614
88 94461
88 74438
88 4619
88 248145
88 171191
88 229650
88 266820
88 371547
88 136095
88 98299
88 26519
88 328328
88 450229
88 141276
88 406105
88 165441
88 63669
88 178699
88 304749
88 301015
88 146102
88 376371
88 12929
88 384247
88 376772
88 235455
88 331546
88 152304
88 113968
88 275577
88 270946
88 121252
88 149856
88 15807
88 85797
88 326419
88 207224
88 106588
88 34206
88 432712
88 233047
88 111031
88 13291
88 445257
88 12892
88 168842
88 361156
88 126381
88 201326
88 110801
88 197718
88 215599
88 145247
88 276842
88 151683
88 48920
88 174245
88 182864
88 377710
88 65496
88 138237
88 48516
88 412533
88 301830
88 338556
88 59339
88 1295
88 171000
88 28769
88 304113
88 318780
88 10559
88 161067
88 216155
88 116589
88 388475
88 379127
88 204373
88 133398
88 287600
88 157428
88 163526
88 428236
88 280680
88 38964
88 30633
88 185216
88 179359
88 264186
88 237204
88 165387
88 58492
88 383863
88 91983
88 166150
88 170558
88 182917
88 104460
88 330014
88 272840
88 220535
88 15202
88 179399
88 197347
88 2421
88 304811
88 154685
88 203593
88 269699
88 267381
88 3255
88 81589
88 374001
88 11950
88 379882
88 174019
88 86258
88 291635
88 59894
88 374516
88 34392
88 172743
88 400696
88 127585
88 41352
88 76194
88 147509
88 379335
88 44583
88 252357
88 214531
88 326180
88 191254
88 299891
88 337319
88 381271
88 244998
88 341314
88 84572
88 148699
88 8698
88 187027
88 367403
88 52211
88 243313
88 341538
88 366912
88 20438
88 346548
88 282758
88 110874
88 110156
88 152187
88 119185
88 57674
88 231064
88 171851
88 357050
88 38942
88 139922
88 117471
88 44892
88 349230
88 123880
88 296008
88 40004
88 195940
88 238524
88 426524
88 78994
88 78118
88 7668
88 108538
88 25307
88 186451
88 334116
88 345448
88 86421
88 164136
88 6327
88 95976
88 442906
88 352263
88 178800
88 85105
88 193355
88 31119
88 341203
88 177678
88 409360
88 183759
88 49571
88 342511
88 205514
88 311633
88 179646
88 152378
88 12972
88 98087
88 93643
88 31200
88 437445
88 311751
88 339534
88 216365
88 299921
88 34176
88 8225
88 26151
88 440783
88 350830
88 295006
88 18170
88 352286
88 205530
88 237477
88 127978
88 383816
88 71311
88 4960
88 109662
88 266200
88 365322
88 221558
88 441183
88 111189
88 235155
88 22907
88 230165
88 338695
88 220954
88 270745
88 455484
88 442963
88 220784
88 190839
88 297383
88 328793
88 196372
88 331217
88 342990
88 156122
88 440774
88 134643
88 58042
88 431680
88 77459
88 127160
88 65443
88 60773
88 386269
88 182355
88 405161
88 118540
88 25861
88 119023
88 163960
88 256955
88 11884
88 391245
88 276071
88 432189
88 251885
88 290470
88 267269
88 88683
88 402404
88 311565
88 45391
88 1181
88 53635
88 153827
88 49331
88 80768
88 420066
88 130044
88 2364
88 36973
88 448866
88 142052
88 93307
88 362516
88 35895
88 385273
88 244510
88 124528
88 422771
88 139213
88 379461
88 154171
88 59213
88 17527
88 300832
88 268041
88 135866
88 425060
88 435652
88 93730
88 62659
88 53372
88 35827
88 377035
88 278459
88 275005
88 105696
88 213971
88 89969
88 124628
88 251993
88 109713
88 230279
88 58202
88 25228
88 118929
88 28560
88 244782
88 213788
88 448741
88 11341
88 26677
88 76926
88 437813
88 434776
88 408657
88 252801
88 91818
88 292093
88 212569
88 346027
88 273375
88 425276
88 46242
88 164638
88 98088
88 91088
88 352469
88 101625
88 279868
88 389129
88 67926
88 182663
88 285844
88 98306
88 92963
88 29234
88 272509
88 152481
88 351438
88 114901
88 191535
88 290768
88 266205
88 423890
88 42147
88 78322
88 201965
88 48214
88 259933
88 8429
88 311933
88 313119
88 250463
88 186859
88 140055
88 109255
88 47776
88 373636
88 28375
88 222374
88 254176
88 30373
88 320994
88 199912
88 398529
88 121414
88 84840
88 430812
88 32730
88 134408
88 145232
88 399386
88 323711
88 224492
88 288019
88 143953
88 399049
88 378352
88 316296
88 161091
88 176256
88 57712
88 365648
88 196046
88 430237
88 140559
88 290806
88 1171
88 203224
88 62934
88 135921
88 242910
88 8211
88 120761
88 367916
88 185830
88 93198
88 274344
88 69157
88 319002
88 278335
88 163819
88 112550
88 118299
88 18179
88 325054
88 55546
88 164881
88 113036
88 44250
88 444702
88 398536
88 15270
88 292183
88 300430
88 351648
88 23965
88 340349
88 385613
88 238548
88 114071
88 273271
88 441908
88 152363
88 210591
88 33833
88 84555
88 13143
88 141316
88 152665
88 438066
88 97675
88 159951
88 147302
88 60977
88 454613
88 294748
88 90235
88 219238
88 252804
88 431282
88 184294
88 134539
88 28647
88 260147
88 187256
88 322462
88 393459
88 434972
88 124257
88 5734
88 338617
88 87919
88 61593
88 158064
88 50207
88 24211
88 133393
88 155174
88 185176
88 216369
88 150669
88 249021
88 110618
88 275989
88 143333
88 108804
88 146628
88 299996
88 171819
88 271811
88 49950
88 162416
88 363959
88 121511
88 271289
88 176052
88 291007
88 199063
88 116936
88 305744
88 305117
88 231551
88 95984
88 21852
88 220830
88 307525
88 38814
88 191758
88 259881
88 32060
88 323266
88 178168
88 372286
88 414886
88 238525
88 355448
88 926
88 153395
88 412670
88 118548
88 322724
88 224578
88 62195
88 110844
88 281003
88 236484
88 423032
88 95453
88 421488
88 782
88 189826
88 53575
88 234864
88 172165
88 11906
88 95480
88 108571
88 94269
88 310311
88 441439
88 206374
88 306738
88 145557
88 269336
88 228252
88 161107
88 61418
88 433501
88 129784
88 201657
88 171704
88 291285
88 15137
88 24762
88 191373
88 171885
88 440358
88 9451
88 266134
88 149700
88 93362
88 94888
88 217391
88 257501
88 396933
88 65899
88 172016
88 216822
88 287472
88 254864
88 451409
88 127451
88 18939
88 87217
88 274663
88 285999
88 3712
88 282886
88 136309
88 52274
88 184448
88 341517
88 203036
88 158621
88 251858
88 162085
88 413601
88 165303
88 417615
88 407470
88 242950
88 155170
88 177535
88 126993
88 301464
88 355466
88 240909
88 309155
88 328975
88 406314
88 121955
88 356218
88 51118
88 155252
88 25827
88 217181
88 67623
88 350145
88 49981
88 181923
88 11365
88 199922
88 125371
88 129454
88 328951
88 172736
88 445096
88 118088
88 233003
88 414827
88 185764
88 54275
88 244407
88 435381
88 364152
88 225991
88 379976
88 328108
88 86358
88 236406
88 50653
88 227395
88 432570
88 3302
88 400401
88 268455
88 150346
88 189196
88 134319
88 263450
88 98015
88 279126
88 85973
88 167195
88 19666
88 127759
88 323317
88 89248
88 141185
88 72422
88 106661
88 179585
88 54442
88 8053
88 23665
88 151797
88 16837
88 82091
88 354611
88 292529
88 84272
88 449764
88 213145
88 353569
88 437798
88 71430
88 384664
88 328093
88 101174
88 177747
88 150805
88 132863
88 56611
88 454563
88 278103
88 354953
88 207782
88 180734
88 419442
88 109201
88 254576
88 62333
88 78930
88 266346
88 428691
88 26397
88 409233
88 386374
88 279344
88 112299
88 164646
88 345278
88 218945
88 399018
88 77866
88 353213
88 178375
88 2883
88 247225
88 125573
88 317980
88 138539
88 49245
88 22004
88 203742
88 56875
88 55567
88 166171
88 68885
88 239517
88 337444
88 62358
88 245358
88 230668
88 66003
88 47868
88 95974
88 11363
88 274912
88 71974
88 19960
88 386887
88 26408
88 77116
88 62316
88 222941
88 289749
88 150120
88 255561
88 404683
88 115447
88 19644
88 175026
88 10755
88 272703
88 325617
88 9704
88 163955
88 243032
88 451374
88 313146
88 171081
88 47865
88 444491
88 116310
88 94166
88 192531
88 156233
88 19800
88 112917
88 71079
88 247492
88 295207
88 350375
88 157316
88 291102
88 136413
88 249285
88 49648
88 450855
88 83120
88 157116
88 88515
88 353100
88 107433
88 137614
88 421791
88 61005
88 8023
88 301247
88 144136
88 151806
88 27033
88 130555
88 250784
88 231769
88 73974
88 213236
88 201684
88 70895
88 23882
88 127596
88 300091
88 82833
88 387098
88 20445
88 161322
88 232083
88 260558
88 251706
88 438016
88 15044
88 281693
88 154378
88 87110
88 222231
88 155393
88 107996
88 291609
88 81619
88 107934
88 184713
88 163172
88 69690
88 444918
88 55591
88 89884
88 197936
88 188204
88 59049
88 173711
88 356428
88 236926
88 385009
88 283897
88 188583
88 444521
88 330384
88 83871
88 323700
88 425815
88 387715
88 149443
88 447606
88 454143
88 157644
88 137587
88 240790
88 135121
88 102082
88 442853
88 249647
88 211389
88 414188
88 384689
88 180483
88 38342
88 130088
88 6435
88 31618
88 238527
88 134055
88 297451
88 58872
88 141983
88 237751
88 97402
88 118123
88 86295
88 280798
88 329914
88 295840
88 284055
88 238392
88 152570
88 187182
88 314463
88 145718
88 132853
88 195128
88 386196
88 267419
88 107895
88 80388
88 449540
88 220680
88 182368
88 167593
88 424927
88 340642
88 29890
88 67102
88 43309
88 57165
88 275045
88 137491
88 131853
88 405188
88 179140
88 443281
88 257056
88 188048
88 429177
88 175792
88 380767
88 427637
88 358643
88 55951
88 29283
88 291170
88 109897
88 248690
88 995
88 86774
88 189059
88 167123
88 402507
88 30438
88 452962
88 47885
88 192904
88 50587
88 314860
88 452892
88 295940
88 443176
88 353986
88 337877
88 251662
88 449397
88 427264
88 27141
88 442429
88 167698
88 47771
88 246334
88 78441
88 308140
88 199734
88 292736
88 222763
88 454970
88 114508
88 230134
88 111524
88 87282
88 407738
88 337988
88 387522
88 423869
88 111325
88 64610
88 252516
88 421156
88 250586
88 178032
88 134488
88 364089
88 216456
88 92066
88 416332
88 189190
88 341698
88 285790
88 397143
88 1452
88 217109
88 409994
88 227376
88 177141
88 427510
88 34950
88 50788
88 260101
88 16300
88 161543
88 209217
88 197852
88 183236
88 177952
88 109695
88 194441
88 321751
88 429481
88 71649
88 51684
88 146565
88 339526
88 135144
88 232880
88 83535
88 7480
88 242780
88 137702
88 438915
88 253942
88 235313
88 100965
88 417053
88 131183
88 126688
88 407778
88 313274
88 178677
88 215114
88 212672
88 295801
88 143369
88 170828
88 153497
88 368379
88 322327
88 305405
88 22067
88 148507
88 99635
88 189839
88 11065
88 28333
88 175085
88 404330
88 9862
88 368512
88 78034
88 71164
88 346686
88 65340
88 300289
88 249073
88 405796
88 267100
88 137456
88 325849
88 259746
88 195528
88 100190
88 29871
88 450451
88 37607
88 262267
88 444936
88 137618
88 209034
88 234106
88 198527
88 177272
88 131190
88 216754
88 430729
88 189631
88 32825
88 148932
88 153984
88 416012
88 420041
88 367077
88 329619
88 242236
88 28612
88 427125
88 315183
88 356466
88 331078
88 162354
88 212660
88 229286
88 27089
88 98557
88 50691
88 448908
88 95589
88 428447
88 111075
88 432176
88 114154
88 455214
88 199325
88 119944
88 374098
88 102591
88 137887
88 59622
88 236268
88 75856
88 10087
88 194390
88 120225
88 4918
88 105857
88 11654
88 85602
88 204475
88 172447
88 79641
88 285655
88 422985
88 277179
88 398999
88 357713
88 290671
88 82376
88 119440
88 56259
88 63910
88 164244
88 282817
88 305572
88 142084
88 211215
88 29477
88 242293
88 203574
88 6288
88 252810
88 142132
88 285309
88 377714
88 96600
88 301041
88 71388
88 242850
88 84921
88 221653
88 163525
88 191272
88 375665
88 70711
88 235652
88 164098
88 165315
88 31511
88 401032
88 275943
88 381600
88 149264
88 215695
88 4184
88 224339
88 276160
88 419960
88 183181
88 26862
88 90752
88 196658
88 367452
88 267395
88 11038
88 27903
88 130702
88 410342
88 331683
88 236946
88 45935
88 389144
88 238236
88 305690
88 295434
88 424047
88 47647
88 9941
88 204307
88 209670
88 79592
88 244683
88 197980
88 191108
88 134981
88 171309
88 423155
88 120010
88 394170
88 290206
88 428327
88 96843
88 126956
88 86720
88 87648
88 185607
88 210042
88 331006
88 67327
88 100955
88 398908
88 339493
88 423429
88 243890
88 101220
88 121318
88 203719
88 154415
88 73093
88 387302
88 120719
88 189187
88 227500
88 18087
88 129045
88 391375
88 171908
88 22017
88 149149
88 145504
88 109087
88 285192
88 158000
88 132725
88 45869
88 187628
88 139191
88 333201
88 2555
88 255080
88 134595
88 54202
88 455773
88 308
88 148374
88 333977
88 184363
88 415207
88 183856
88 117423
88 78666
88 171353
88 4413
88 151799
88 452444
88 327859
88 400093
88 257576
88 81405
88 350288
88 378013
88 38652
88 110108
88 330654
88 266489
88 268375
88 437442
88 375079
88 55480
88 454363
88 414181
88 343339
88 329988
88 122584
88 277510
88 18958
88 69666
88 213444
88 131454
88 231130
88 199759
88 137992
88 229560
88 309930
88 350227
88 282522
88 214227
88 153841
88 20608
88 285858
88 408507
88 410543
88 192549
88 218254
88 141296
88 12928
88 55443
88 134640
88 337866
88 13936
88 189418
88 454626
88 19014
88 16547
88 26035
88 188666
88 296609
88 17621
88 410847
88 308946
88 216857
88 163967
88 135840
88 142834
88 391244
88 295518
88 297691
88 142208
88 33507
88 112031
88 373297
88 212440
88 187462
88 8855
88 439836
88 211766
88 190541
88 243246
88 75989
88 136255
88 72953
88 234664
88 210322
88 346707
88 101573
88 254140
88 296572
88 343161
88 16801
88 43002
88 208756
88 268777
88 293069
88 25965
88 100870
88 426968
88 87540
88 379517
88 384474
88 100406
88 5181
88 208599
88 221624
88 289555
88 156277
88 450217
88 303139
88 235473
88 33422
88 345602
88 81688
88 228575
88 411492
88 134822
88 215787
88 410572
88 148030
88 2714
88 241617
88 93606
88 52520
88 211345
88 113120
88 141322
88 376922
88 140433
88 377399
88 401324
88 51274
88 370738
88 133562
88 226125
88 197087
88 164385
88 359170
88 256903
88 223844
88 350510
88 12966
88 220697
88 82868
88 156097
88 244092
88 358551
88 352237
88 21122
88 438116
88 162412
88 395262
88 24769
88 204350
88 405084
88 373737
88 93171
88 75220
88 235606
88 77343
88 92153
88 93275
88 389891
88 73097
88 44512
88 40732
88 151353
88 226051
88 126902
88 196848
88 345594
88 174333
88 359518
88 145979
88 46079
88 395867
88 91405
88 230347
88 216056
88 265446
88 46417
88 239991
88 239003
88 449586
88 301303
88 120865
88 5222
88 111624
88 222470
88 286730
88 107219
88 116188
88 218991
88 415221
88 145753
88 283000
88 271122
88 48746
88 196199
88 235556
88 103986
88 417219
88 201213
88 281780
88 32518
88 251309
88 160936
88 235770
88 251366
88 141905
88 449633
88 243333
88 86149
88 222487
88 210100
88 151440
88 93222
88 12424
88 90232
88 442277
88 132990
88 48983
88 371819
88 71309
88 139596
88 403972
88 177594
88 154947
88 160297
88 415780
88 274101
88 170508
88 2634
88 444764
88 365864
88 363446
88 267271
88 147822
88 83019
88 223179
88 332700
88 340519
88 316527
88 406640
88 265846
88 168894
88 419019
88 168342
88 103958
88 14476
88 242074
88 232040
88 230234
88 99369
88 162417
88 131611
88 351706
88 295879
88 204214
88 148436
88 43503
88 442073
88 301744
88 333693
88 35527
88 65572
88 447643
88 295723
88 42014
88 134148
88 288206
88 298923
88 121293
88 231263
88 75654
88 199473
88 58869
88 115103
88 52658
88 112386
88 55092
88 279373
88 227844
88 120127
88 344851
88 257094
88 76210
88 14706
88 212288
88 304651
88 351056
88 109678
88 46174
88 280289
88 320117
88 296173
88 98562
88 158682
88 99702
88 312666
88 201103
88 1846
88 92854
88 421366
88 87038
88 403921
88 295398
88 98626
88 345640
88 288318
88 53854
88 89751
88 58596
88 247455
88 100038
88 286311
88 76405
88 382121
88 356800
88 344842
88 225411
88 117046
88 393290
88 427572
88 31580
88 137741
88 25007
88 223280
88 398800
88 161373
88 70319
88 248596
88 223890
88 10147
88 370323
88 316650
88 202890
88 5406
88 386711
88 136639
88 350163
88 192565
88 418869
88 127174
88 163281
88 254921
88 454037
88 260838
88 86684
88 40863
88 45229
88 81201
88 356343
88 313373
88 291481
88 323044
88 268813
88 296290
88 169771
88 115034
88 379433
88 116070
88 446197
88 171732
88 163470
88 171708
88 259101
88 101780
88 455737
88 412047
88 172767
88 49147
88 231979
88 279274
88 351252
88 317906
88 84764
88 39656
88 81105
88 92901
88 404508
88 339556
88 20601
88 94979
88 425798
88 78000
88 297005
88 23946
88 385247
88 140935
88 236633
88 344
88 24954
88 42194
88 403674
88 327468
88 217853
88 283457
88 295134
88 58350
88 220937
88 273916
88 259237
88 14916
88 46328
88 434462
88 281001
88 107027
88 12758
88 21142
88 207010
88 107542
88 100434
88 267858
88 351481
88 368419
88 175714
88 162587
88 185526
88 12172
88 255849
88 76957
88 402668
88 356110
88 44802
88 153964
88 175616
88 171269
88 142707
88 290519
88 20636
88 142625
88 318520
88 40095
88 91354
88 189047
88 231001
88 161903
88 212983
88 233088
88 9867
88 301517
88 27811
88 11626
88 382682
88 138498
88 302345
88 8269
88 258719
88 219963
88 344590
88 239597
88 437825
88 9565
88 9951
88 454518
88 135110
88 144788
88 189159
88 409079
88 201193
88 29024
88 357739
88 86631
88 63424
88 411673
88 141619
88 455950
88 383437
88 126011
88 145483
88 37182
88 445603
88 105814
88 281350
88 246623
88 275643
88 60979
88 223122
88 262276
88 108439
88 219818
88 138954
88 174623
88 375775
88 96255
88 10754
88 452866
88 216018
88 1580
88 315848
88 168000
88 78054
88 117737
88 91032
88 441379
88 132441
88 17910
88 239872
88 246197
88 277482
88 448400
88 230881
88 373715
88 52761
88 388235
88 15886
88 107638
88 4792
88 314000
88 84527
88 17988
88 187431
88 326827
88 289860
88 417124
88 420929
88 230757
88 305026
88 90320
88 109824
88 65828
88 19850
88 400392
88 314105
88 65852
88 118555
88 139569
88 218693
88 9517
88 349009
88 333399
88 408548
88 421540
88 298995
88 146419
88 404850
88 305985
88 325948
88 257134
88 443036
88 213674
88 423421
88 272685
88 383740
88 85301
88 282559
88 430315
88 249637
88 154206
88 27883
88 333346
88 355797
88 212988
88 233273
88 122059
88 68637
88 136247
88 206753
88 55007
88 220947
88 150890
88 101551
88 217117
88 252702
88 202184
88 265634
88 203555
88 259684
88 327935
88 46433
88 13363
88 24820
88 63097
88 435119
88 195465
88 250372
88 346921
88 226551
88 343719
88 22002
88 314223
88 423218
88 68543
88 330056
88 240806
88 12824
88 116323
88 41019
88 28427
88 361296
88 422903
88 164798
88 84914
88 43895
88 130902
88 296623
88 179459
88 363512
88 134289
88 15880
88 14281
88 417757
88 343617
88 356293
88 420853
88 22555
88 386732
88 79449
88 208053
88 145520
88 218634
88 356782
88 132118
88 343583
88 94361
88 269120
88 12056
88 197487
88 107894
88 390369
88 161593
88 144380
88 266025
88 407510
88 236813
88 182369
88 43515
88 131597
88 265699
88 324625
88 55379
88 217458
88 84556
88 253150
88 168779
88 51438
88 26483
88 45559
88 79227
88 272280
88 218426
88 63677
88 157823
88 243348
88 446747
88 40247
88 344464
88 44107
88 313837
88 359259
88 386984
88 160541
88 441982
88 203424
88 274139
88 336059
88 92252
88 262007
88 243274
88 349755
88 39096
88 113419
88 53791
88 32438
88 3985
88 97345
88 147469
88 100471
88 86181
88 63049
88 367170
88 23831
88 97641
88 435946
88 404493
88 94356
88 392705
88 255782
88 304677
88 211376
88 40780
88 140672
88 253503
88 108488
88 72058
88 221049
88 35646
88 355070
88 221430
88 404873
88 27701
88 42261
88 258406
88 159261
88 372555
88 207607
88 17785
88 119975
88 279260
88 182083
88 58683
88 113121
88 243182
88 199495
88 321855
88 276387
88 249216
88 174901
88 100134
88 257346
88 19478
88 56556
88 33593
88 39784
88 295884
88 160627
88 25560
88 251847
88 125280
88 248029
88 172822
88 80403
88 183632
88 209729
88 264451
88 180057
88 423617
88 31363
88 204358
88 413494
88 203329
88 64774
88 301924
88 224109
88 172199
88 51162
88 160694
88 404688
88 297606
88 299180
88 411043
88 415316
88 260687
88 399495
88 407032
88 258902
88 299153
88 427884
88 18962
88 338540
88 231993
88 114923
88 202894
88 33095
88 332905
88 135071
88 51640
88 14767
88 106609
88 89542
88 275845
88 91055
88 267840
88 100675
88 349574
88 150761
88 28851
88 216523
88 299955
88 91675
88 27549
88 454412
88 185850
88 452055
88 311664
88 323220
88 114302
88 423156
88 422792
88 191870
88 22813
88 370290
88 390236
88 410954
88 36802
88 5830
88 11026
88 445796
88 419424
88 407344
88 141048
88 279588
88 269381
88 67701
88 160834
88 48548
88 192582
88 183593
88 39421
88 147579
88 372806
88 169287
88 239552
88 235969
88 25955
88 213331
88 238468
88 74783
88 319970
88 404449
88 352094
88 75792
88 345115
88 7382
88 91897
88 252382
88 141910
88 14324
88 220281
88 27311
88 129200
88 133978
88 220663
88 120859
88 177391
88 176387
88 208150
88 322735
88 359251
88 80067
88 113541
88 140667
88 448128
88 180218
88 82566
88 440118
88 199452
88 234097
88 212418
88 34794
88 435488
88 25580
88 187508
88 19335
88 89068
88 228199
88 304151
88 140629
88 205846
88 285857
88 95514
88 179234
88 196017
88 86423
88 181985
88 206693
88 13839
88 61906
88 184234
88 5805
88 7607
88 346826
88 266676
88 295578
88 255097
88 354428
88 80686
88 64223
88 304454
88 243306
88 192490
88 238622
88 45564
88 166425
88 379825
88 112715
88 128764
88 234807
88 145346
88 131964
88 291570
88 150512
88 444467
88 40901
88 23503
88 270934
88 190283
88 366004
88 153272
88 397316
88 267645
88 441197
88 78668
88 11850
88 305872
88 327857
88 333518
88 209671
88 91342
88 141036
88 363392
88 67504
88 134135
88 406517
88 40800
88 322404
88 428145
88 100954
88 292851
88 121993
88 26870
88 317700
88 46647
88 62907
88 19059
88 429570
88 425310
88 204634
88 19347
88 161596
88 48039
88 427699
88 25310
88 214671
88 454029
88 3069
88 28789
88 234984
88 325898
88 302152
88 159269
88 198066
88 195548
88 430263
88 243543
88 333406
88 28574
88 430230
88 121674
88 433774
88 267496
88 132317
88 128915
88 441701
88 413586
88 6255
88 365795
88 320471
88 38653
88 427476
88 241453
88 46534
88 427428
88 140731
88 182488
88 372181
88 168680
88 74596
88 375740
88 240402
88 69398
88 423648
88 286739
88 442442
88 324038
88 343306
88 408332
88 451911
88 320135
88 11270
88 18394
88 104005
88 292295
88 102755
88 399179
88 266839
88 372896
88 94724
88 264305
88 284113
88 72514
88 26943
88 449863
88 96012
88 209831
88 221905
88 179395
88 247884
88 16405
88 173782
88 87774
88 1243
88 170248
88 223809
88 285443
88 273011
88 12779
88 246130
88 107791
88 156668
88 87771
88 151668
88 167973
88 244802
88 88681
88 23278
88 236611
88 435354
88 47358
88 148975
88 307776
88 145254
88 361490
88 184887
88 216979
88 6029
88 20717
88 9484
88 105683
88 78016
88 179934
88 234241
88 330073
88 75562
88 225478
88 266194
88 15191
88 388799
88 138829
88 103988
88 230370
88 446158
88 8701
88 42180
88 276433
88 266262
88 170718
88 445527
88 303987
88 309995
88 142436
88 46265
88 126776
88 71277
88 278627
88 164084
88 142174
88 428046
88 14615
88 2218
88 280896
88 259586
88 127739
88 30143
88 293002
88 92302
88 95116
88 14003
88 242299
88 81181
88 72623
88 202941
88 162949
88 50191
88 187870
88 299618
88 67950
88 385791
88 46368
88 385806
88 317523
88 224548
88 281706
88 359937
88 200105
88 46464
88 246221
88 395882
88 113767
88 231676
88 269133
88 47465
88 88225
88 37573
88 274500
88 271365
88 210685
88 375598
88 301220
88 152292
88 230479
88 254386
88 57159
88 148618
88 371845
88 202609
88 229938
88 449148
88 106923
88 27886
88 442868
88 335104
88 267310
88 121760
88 31171
88 383183
88 188618
88 199073
88 387315
88 204237
88 352562
88 71984
88 379135
88 72672
88 97010
88 101377
88 379701
88 157145
88 285185
88 328718
88 351603
88 76458
88 274416
88 8950
88 426743
88 151045
88 25066
88 149687
88 161694
88 103828
88 354170
88 140120
88 251025
88 64170
88 106868
88 47010
88 311817
88 400222
88 52830
88 219554
88 118777
88 230925
88 298339
88 434471
88 328381
88 436569
88 163003
88 141767
88 11964
88 112843
88 225692
88 199750
88 76413
88 10324
88 345887
88 408610
88 315715
88 388564
88 358832
88 143052
88 273574
88 451370
88 449458
88 52923
88 87183
88 281594
88 223602
88 10442
88 64084
88 222378
88 76552
88 91841
88 79430
88 276313
88 214259
88 74451
88 392809
88 77320
88 117775
88 25019
88 247021
88 172831
88 260840
88 1001
88 47140
88 163514
88 35685
88 231574
88 123505
88 49179
88 13261
88 67922
88 263864
88 175283
88 71407
88 129544
88 426501
88 134553
88 440981
88 50131
88 25048
88 426236
88 103959
88 231980
88 230569
88 84171
88 88790
88 33569
88 131648
88 23280
88 199984
88 384068
88 233477
88 88673
88 386176
88 271892
88 314621
88 305727
88 167376
88 169181
88 82915
88 160002
88 125109
88 63120
88 403823
88 165232
88 216574
88 25719
88 98221
88 98288
88 97598
88 2513
88 109641
88 20044
88 372735
88 93660
88 134978
88 120124
88 10586
88 391511
88 63160
88 82373
88 253626
88 69237
88 7100
88 433767
88 389596
88 426077
88 246129
88 30239
88 42396
88 234130
88 57904
88 229172
88 443843
88 226183
88 97251
88 169294
88 237075
88 225743
88 182635
88 173907
88 86364
88 10916
88 153755
88 82732
88 155782
88 106960
88 224821
88 166562
88 180518
88 146160
88 354643
88 295623
88 110817
88 436053
88 207411
88 12586
88 214148
88 435278
88 202136
88 237616
88 61813
88 93026
88 232467
88 373812
88 292104
88 6062
88 180473
88 260680
88 214455
88 297724
88 292660
88 76567
88 206176
88 95496
88 205499
88 338173
88 275800
88 105587
88 353014
88 175709
88 223488
88 169216
88 345560
88 230283
88 59852
88 138770
88 141577
88 126212
88 212421
88 88670
88 327350
88 343295
88 339292
88 206469
88 157865
88 51762
88 282071
88 424369
88 25697
88 97378
88 193737
88 88716
88 19865
88 155537
88 129998
88 152526
88 236554
88 428640
88 8327
88 287855
88 236881
88 189953
88 286908
88 69431
88 342348
88 438663
88 397810
88 149910
88 431691
88 49615
88 343133
88 24019
88 278988
88 264515
88 157754
88 195264
88 218193
88 395492
88 218218
88 161328
88 335620
88 80229
88 250175
88 199102
88 89345
88 300571
88 357315
88 259542
88 410754
88 19343
88 40898
88 255725
88 51886
88 229447
88 439898
88 384003
88 34872
88 140809
88 26675
88 254874
88 84304
88 369528
88 135182
88 272936
88 85059
88 101238
88 278041
88 421004
88 296441
88 208761
88 311855
88 107829
88 216921
88 307089
88 451960
88 124924
88 97397
88 213868
88 453777
88 413952
88 176570
88 217784
88 32355
88 138241
88 360666
88 53694
88 69876
88 141951
88 165154
88 212540
88 404696
88 6410
88 9060
88 63419
88 159290
88 28681
88 265557
88 132711
88 139899
88 178112
88 61618
88 186440
88 326766
88 362573
88 143491
88 88891
88 304629
88 23605
88 43565
88 107993
88 141026
88 179180
88 357406
88 391394
88 144430
88 171367
88 399353
88 144265
88 222303
88 286756
88 216193
88 211832
88 430927
88 28951
88 42970
88 399313
88 335732
88 305070
88 155317
88 230247
88 120922
88 106110
88 400208
88 218857
88 112337
88 241366
88 296012
88 233852
88 164968
88 320539
88 292992
88 409318
88 411061
88 227381
88 165218
88 74016
88 58532
88 218763
88 201192
88 232326
88 260271
88 299086
88 440649
88 39198
88 323658
88 381168
88 210746
88 181396
88 192431
88 297388
88 333349
88 220705
88 56449
88 453806
88 2183
88 32688
88 58562
88 190379
88 257025
88 430871
88 310211
88 316336
88 349333
88 98669
88 388600
88 452083
88 235984
88 121058
88 238137
88 101285
88 242848
88 409680
88 149053
88 135758
88 95883
88 400577
88 442758
88 147075
88 81179
88 223595
88 104604
88 304489
88 319792
88 148376
88 357938
88 113459
88 97757
88 277049
88 105111
88 18182
88 196669
88 365893
88 271088
88 440189
88 75358
88 441621
88 31624
88 295221
88 23382
88 53646
88 376634
88 182807
88 341038
88 207680
88 389610
88 237622
88 89202
88 1255
88 234309
88 153113
88 442692
88 83811
88 55176
88 216293
88 277177
88 212151
88 417884
88 395433
88 156694
88 443381
88 164859
88 208901
88 168429
88 64587
88 133126
88 142182
88 129404
88 135306
88 320744
88 115867
88 251578
88 28554
88 228088
88 180081
88 212989
88 183934
88 353111
88 399186
88 287435
88 21234
88 353357
88 386170
88 52232
88 456521
88 198189
88 50539
88 22900
88 380469
88 297521
88 279501
88 384817
88 223498
88 206392
88 73018
88 298793
88 174691
88 50523
88 439003
88 454387
88 306772
88 87203
88 3733
88 58961
88 138175
88 69897
88 37481
88 28618
88 1023
88 14012
88 17761
88 298007
88 316043
88 180496
88 79931
88 40990
88 71424
88 94362
88 416694
88 346764
88 84117
88 88600
88 189370
88 454766
88 142043
88 8850
88 367216
88 427107
88 42483
88 93816
88 299174
88 257333
88 138012
88 450156
88 297003
88 283509
88 51488
88 342870
88 77856
88 99006
88 249299
88 4094
88 173360
88 360215
88 287062
88 124961
88 422310
88 127908
88 33213
88 28802
88 286222
88 456457
88 36502
88 318150
88 269110
88 240987
88 346030
88 381414
88 357336
88 311325
88 209976
88 409344
88 143235
88 137342
88 416099
88 28561
88 46117
88 151977
88 7881
88 399835
88 85544
88 169811
88 168913
88 213159
88 161082
88 13735
88 21727
88 234316
88 209078
88 294524
88 97740
88 166453
88 63475
88 77979
88 69225
88 140011
88 215401
88 91880
88 81709
88 282423
88 327938
88 133499
88 29183
88 359653
88 25142
88 424105
88 142276
88 417074
88 153484
88 7027
88 186147
88 58635
88 73655
88 74752
88 333257
88 223687
88 112289
88 10122
88 237181
88 129855
88 182776
88 173008
88 397478
88 98352
88 260834
88 374730
88 36674
88 59905
88 375743
88 83537
88 278788
88 346604
88 144868
88 183795
88 232866
88 220401
88 50643
88 259225
88 431464
88 41274
88 200433
88 10595
88 377243
88 121835
88 109710
88 293425
88 363143
88 51301
88 296059
88 266660
88 88361
88 442735
88 162777
88 93542
88 71800
88 241601
88 76162
88 310300
88 183219
88 141864
88 355147
88 97488
88 139188
88 360993
88 76386
88 349575
88 78656
88 29599
88 286560
88 82112
88 264168
88 288275
88 410992
88 227379
88 311964
88 141150
88 360350
88 99684
88 422582
88 144854
88 47425
88 50276
88 154056
88 21808
88 204530
88 94719
88 269656
88 99975
88 284269
88 109896
88 397962
88 24409
88 299177
88 45867
88 452140
88 218765
88 75275
88 351330
88 55703
88 150929
88 358373
88 290798
88 107364
88 74526
88 306155
88 33814
88 318844
88 314803
88 243195
88 238197
88 212870
88 45205
88 35974
88 181061
88 356879
88 186273
88 34097
88 132647
88 45697
88 3560
88 169729
88 60249
88 164578
88 214209
88 281517
88 283945
88 40886
88 164405
88 349354
88 294346
88 240311
88 150058
88 108267
88 407928
88 79587
88 397945
88 344579
88 242767
88 150902
88 170743
88 140666
88 136565
88 38151
88 436780
88 65017
88 215055
88 392823
88 179991
88 30115
88 152602
88 21503
88 206662
88 217992
88 154126
88 269160
88 39634
88 80654
88 372481
88 120511
88 394139
88 436352
88 383565
88 7439
88 207934
88 38093
88 418623
88 283885
88 446727
88 369061
88 137448
88 344142
88 95397
88 212705
88 281937
88 194702
88 273158
88 127661
88 234213
88 44238
88 278191
88 29001
88 415036
88 315672
88 308338
88 111457
88 189927
88 245057
88 95638
88 271418
88 37450
88 27345
88 383933
88 347805
88 166975
88 29472
88 168010
88 112614
88 179939
88 379675
88 32745
88 154534
88 147687
88 425764
88 425631
88 45364
88 283259
88 129141
88 12201
88 26818
88 171129
88 195266
88 234772
88 286243
88 127334
88 111847
88 322913
88 436180
88 179289
88 217939
88 123416
88 67624
88 119909
88 50860
88 80054
88 98842
88 421583
88 20822
88 239849
88 203389
88 422628
88 281503
88 234445
88 403372
88 153100
88 352898
88 175695
88 333322
88 249761
88 130005
88 224878
88 384444
88 230224
88 221999
88 119015
88 17949
88 40080
88 377184
88 350049
88 356346
88 315402
88 28029
88 159594
88 95456
88 67895
88 62489
88 57939
88 110521
88 166579
88 84964
88 277777
88 228488
88 447593
88 236401
88 333304
88 254693
88 125825
88 148577
88 409834
88 275657
88 38796
88 66482
88 73635
88 174448
88 26154
88 327841
88 175331
88 295660
88 358303
88 274251
88 239688
88 91136
88 388804
88 198580
88 37428
88 328107
88 414255
88 288094
88 26859
88 391508
88 448556
88 365486
88 243794
88 118964
88 22701
88 311141
88 449705
88 220953
88 119488
88 254236
88 53057
88 261296
88 331531
88 145036
88 438284
88 215384
88 217029
88 210732
88 425497
88 322795
88 26942
88 456551
88 21717
88 394075
88 447116
88 444065
88 269847
88 183211
88 432747
88 112484
88 254963
88 374608
88 349304
88 127753
88 434578
88 451946
88 371624
88 41397
88 174272
88 120270
88 60551
88 272679
88 99495
88 352253
88 398382
88 205923
88 182556
88 282801
88 97478
88 165660
88 200858
88 338281
88 456201
88 87032
88 328283
88 341109
88 26743
88 132642
88 46378
88 111731
88 173112
88 182245
88 62160
88 266761
88 226468
88 147824
88 223756
88 311773
88 53672
88 166725
88 18658
88 36135
88 392040
88 314681
88 170658
88 40842
88 238675
88 233346
88 293249
88 80391
88 188384
88 84710
88 195288
88 26205
88 168444
88 454156
88 25014
88 22474
88 148915
88 255249
88 144109
88 292551
88 4481
88 373901
88 40749
88 134432
88 139035
88 45892
88 40107
88 286565
88 345993
88 120283
88 217303
88 257901
88 229024
88 26369
88 386740
88 146740
88 16480
88 414750
88 446501
88 43784
88 417298
88 43861
88 318268
88 91695
88 86902
88 323650
88 209640
88 24004
88 101242
88 313976
88 135303
88 370877
88 119346
88 265089
88 105089
88 403696
88 155581
88 16162
88 374614
88 13980
88 269519
88 335078
88 255880
88 434146
88 254604
88 326969
88 26892
88 223018
88 106767
88 13131
88 127802
88 195541
88 301622
88 19870
88 76265
88 370329
88 134976
88 120384
88 228277
88 111059
88 41710
88 30597
88 168656
88 196571
88 103829
88 200898
88 140121
88 30496
88 384712
88 145661
88 430089
88 124001
88 85132
88 192777
88 205320
88 72453
88 367473
88 132051
88 400812
88 7501
88 34052
88 87633
88 429167
88 161417
88 418445
88 13294
88 173229
88 455482
88 208241
88 49186
88 176059
88 256618
88 233404
88 130123
88 16391
88 307977
88 30266
88 119578
88 412943
88 3300
88 113714
88 437136
88 97984
88 433879
88 117512
88 294898
88 268931
88 367647
88 32351
88 10257
88 177449
88 390588
88 363465
88 85660
88 426890
88 56953
88 192341
88 217042
88 53966
88 246224
88 324586
88 198003
88 420734
88 89000
88 377674
88 270659
88 391538
88 366219
88 294451
88 403579
88 130858
88 388413
88 101425
88 20834
88 10956
88 426337
88 70448
88 46733
88 418014
88 106492
88 103447
88 67110
88 216511
88 26372
88 325816
88 245136
88 364508
88 263894
88 136111
88 4332
88 45350
88 236847
88 78745
88 310688
88 193718
88 57429
88 112462
88 105075
88 392130
88 393358
88 71009
88 125224
88 398000
88 247654
88 317529
88 70148
88 159380
88 337868
88 28810
88 298925
88 426214
88 423742
88 33332
88 372857
88 51213
88 378905
88 45674
88 299195
88 224042
88 215126
88 231368
88 97994
88 51808
88 305280
88 6499
88 57695
88 227895
88 248919
88 398827
88 150237
88 447343
88 384271
88 343599
88 149942
88 242354
88 6635
88 147510
88 261734
88 71874
88 304253
88 36834
88 326051
88 167606
88 451909
88 410779
88 385867
88 20718
88 38135
88 416070
88 15412
88 269811
88 7471
88 87937
88 380069
88 431280
88 91666
88 154210
88 152929
88 229238
88 45911
88 183212
88 231248
88 157265
88 366101
88 166789
88 216609
88 125413
88 206241
88 40568
88 113233
88 208464
88 195459
88 382470
88 348285
88 40192
88 221491
88 418278
88 163015
88 62842
88 440660
88 168433
88 436628
88 61708
88 126352
88 373147
88 303778
88 259200
88 156621
88 39924
88 19325
88 272246
88 194820
88 284763
88 290714
88 434086
88 338347
88 143674
88 361972
88 184359
88 360252
88 120730
88 408940
88 31243
88 33927
88 126994
88 85048
88 401027
88 266723
88 136967
88 281377
88 449103
88 262735
88 294684
88 393279
88 80135
88 157471
88 141370
88 106431
88 305246
88 89587
88 20932
88 351519
88 359317
88 228875
88 48390
88 25633
88 180403
88 143504
88 297120
88 183238
88 157433
88 46964
88 453783
88 186191
88 32031
88 437422
88 259952
88 26720
88 361652
88 4030
88 444337
88 189366
88 436073
88 398383
88 77115
88 73252
88 351509
88 247997
88 389787
88 351173
88 12481
88 46591
88 181266
88 302012
88 185456
88 61152
88 130315
88 302490
88 75292
88 169069
88 53697
88 95617
88 96362
88 350241
88 165551
88 229765
88 209613
88 108723
88 174116
88 147290
88 126457
88 379367
88 422447
88 33636
88 119574
88 85690
88 261949
88 270830
88 225642
88 99675
88 9389
88 224337
88 162263
88 296052
88 244985
88 353055
88 260646
88 151200
88 418015
88 231607
88 94323
88 182061
88 210573
88 289734
88 225576
88 412282
88 120630
88 259849
88 230571
88 239186
88 20922
88 311790
88 26223
88 253198
88 146606
88 143929
88 145161
88 300404
88 310863
88 405330
88 176477
88 375830
88 319272
88 209472
88 20710
88 221659
88 17012
88 216642
88 241774
88 224028
88 181397
88 162802
88 200231
88 402971
88 448087
88 415481
88 214943
88 77074
88 298166
88 115788
88 361555
88 347075
88 225507
88 353368
88 98272
88 216924
88 184920
88 124671
88 112059
88 153780
88 177002
88 36634
88 5452
88 404764
88 29315
88 129839
88 259779
88 107992
88 36318
88 43937
88 204183
88 133482
88 192419
88 220474
88 106305
88 157650
88 11614
88 11769
88 190978
88 9836
88 222410
88 346510
88 280746
88 32775
88 31898
88 195767
88 58569
88 400487
88 369341
88 364980
88 181294
88 122694
88 4463
88 167450
88 123661
88 364277
88 182439
88 217836
88 399432
88 51181
88 320263
88 97452
88 167395
88 260401
88 114478
88 235611
88 117446
88 28608
88 304656
88 222459
88 151398
88 77573
88 375458
88 17378
88 135680
88 192640
88 94217
88 5704
88 376624
88 367122
88 276713
88 138354
88 378021
88 98601
88 174289
88 231960
88 322863
88 393039
88 300137
88 276420
88 12826
88 204931
88 333654
88 45395
88 98202
88 61013
88 38903
88 94052
88 151565
88 32963
88 21803
88 305345
88 206260
88 164288
88 57566
88 220323
88 39544
88 438701
88 138317
88 247468
88 200635
88 33620
88 310053
88 51965
88 134690
88 73560
88 31255
88 11652
88 167442
88 163455
88 243372
88 56032
88 110374
88 230417
88 183070
88 260800
88 80648
88 118968
88 7512
88 74990
88 66902
88 131371
88 353752
88 162857
88 450051
88 415142
88 81470
88 411454
88 133972
88 422311
88 286843
88 122147
88 199042
88 263940
88 14000
88 370593
88 274142
88 147410
88 368219
88 444934
88 228747
88 456511
88 442945
88 270457
88 229194
88 285997
88 175221
88 318255
88 318926
88 144865
88 186269
88 50551
88 356243
88 139098
88 343075
88 320952
88 44868
88 278022
88 450132
88 174186
88 197108
88 270351
88 27277
88 404200
88 100377
88 206401
88 127622
88 239505
88 154387
88 59490
88 431921
88 363438
88 26994
88 409257
88 266157
88 206636
88 329187
88 209479
88 292450
88 214536
88 83665
88 328458
88 181547
88 233386
88 303664
88 64480
88 30276
88 329395
88 254614
88 424619
88 215247
88 282542
88 205104
88 127479
88 161001
88 202952
88 55032
88 201907
88 321443
88 50866
88 213900
88 309077
88 295886
88 452094
88 25089
88 149358
88 68140
88 243279
88 418928
88 230812
88 390078
88 159620
88 249492
88 291233
88 153017
88 128820
88 267596
88 342696
88 47137
88 261858
88 80101
88 220975
88 450306
88 141047
88 99293
88 8815
88 207428
88 72197
88 53380
88 286354
88 346825
88 28261
88 210602
88 311115
88 14368
88 47966
88 342165
88 340557
88 174837
88 289990
88 70543
88 402060
88 118642
88 104567
88 324597
88 224568
88 107235
88 35679
88 77455
88 204959
88 25438
88 428508
88 199267
88 43527
88 24669
88 54705
88 446087
88 206203
88 446534
88 143963
88 153859
88 383869
88 192762
88 132210
88 165407
88 327216
88 141151
88 410231
88 183947
88 332105
88 65408
88 13380
88 62283
88 301599
88 33346
88 92531
88 343688
88 29236
88 92116
88 95702
88 22512
88 19055
88 205737
88 254894
88 167143
88 191812
88 32870
88 23572
88 52771
88 305924
88 261841
88 448710
88 142741
88 166864
88 216512
88 245370
88 11911
88 426983
88 236665
88 238247
88 217129
88 116893
88 223527
88 40520
88 177122
88 232514
88 212188
88 26128
88 404728
88 189340
88 101775
88 178736
88 228125
88 308830
88 6877
88 315095
88 183100
88 116694
88 396021
88 132182
88 254611
88 70095
88 50015
88 51428
88 79271
88 447896
88 229542
88 55434
88 323340
88 233117
88 400817
88 355813
88 60891
88 188994
88 200608
88 243946
88 279203
88 38150
88 65014
88 71173
88 182048
88 101978
88 102042
88 427814
88 163347
88 418597
88 161272
88 38909
88 392453
88 153152
88 131267
88 239191
88 105404
88 129461
88 242286
88 414358
88 101270
88 442985
88 269975
88 153268
88 32013
88 377998
88 33931
88 365665
88 131384
88 442130
88 208619
88 113355
88 163429
88 252686
88 240781
88 27918
88 64074
88 325850
88 83434
88 188635
88 195535
88 375585
88 309586
88 271060
88 6705
88 8748
88 45640
88 133864
88 221906
88 309317
88 393997
88 143510
88 54000
88 432214
88 313260
88 213513
88 392376
88 111586
88 166624
88 269058
88 111194
88 95462
88 377119
88 179221
88 126444
88 165726
88 314478
88 448466
88 265566
88 313374
88 265261
88 176734
88 384768
88 160813
88 259311
88 296579
88 63899
88 434812
88 279135
88 9487
88 46085
88 224515
88 334891
88 212194
88 286946
88 46458
88 322510
88 282450
88 37319
88 35604
88 2150
88 374865
88 327370
88 322086
88 77345
88 257695
88 43210
88 344609
88 436283
88 200947
88 80113
88 233162
88 335704
88 127784
88 386960
88 32482
88 174204
88 74095
88 101025
88 287046
88 63647
88 401074
88 139247
88 303435
88 56357
88 107657
88 253560
88 442297
88 401329
88 374482
88 343936
88 88691
88 294152
88 408348
88 326407
88 361197
88 49575
88 318662
88 259430
88 324872
88 35160
88 94088
88 88209
88 60991
88 341293
88 12883
88 399891
88 240773
88 435924
88 120915
88 8638
88 296397
88 291370
88 292831
88 156149
88 28776
88 261894
88 146190
88 99234
88 186164
88 96729
88 208863
88 420190
88 167313
88 335232
88 364898
88 184226
88 400131
88 32989
88 181422
88 211550
88 134821
88 147631
88 186202
88 40037
88 41034
88 98188
88 238098
88 259754
88 20273
88 333147
88 133363
88 187324
88 159807
88 220301
88 326732
88 422712
88 322794
88 321276
88 443226
88 67998
88 254417
88 426944
88 20849
88 135337
88 358467
88 175266
88 98762
88 209010
88 446219
88 434045
88 240473
88 349248
88 289584
88 166169
88 265504
88 326457
88 111730
88 27981
88 59477
88 38339
88 46300
88 38570
88 43803
88 99869
88 166106
88 388272
88 5175
88 113446
88 414740
88 99314
88 69552
88 187234
88 334452
88 191125
88 409840
88 1270
88 433653
88 132988
88 168447
88 7152
88 87619
88 66750
88 390268
88 230548
88 290873
88 189728
88 448384
88 236003
88 397756
88 3027
88 300671
88 5053
88 33568
88 45893
88 179763
88 379282
88 70198
88 35686
88 82633
88 142928
88 281165
88 121432
88 90241
88 196468
88 421531
88 320495
88 364374
88 437923
88 167616
88 342910
88 72497
88 325156
88 80231
88 71212
88 174431
88 243386
88 181177
88 114396
88 181000
88 230259
88 186284
88 12587
88 373533
88 31944
88 142421
88 164066
88 188702
88 208538
88 436608
88 2371
88 139106
88 354591
88 58654
88 440899
88 69851
88 168795
88 99018
88 193337
88 161471
88 330731
88 327734
88 388949
88 361292
88 677
88 239123
88 389716
88 395679
88 187966
88 35934
88 198690
88 241174
88 134977
88 322606
88 80009
88 152169
88 42685
88 268654
88 285590
88 92974
88 257490
88 173489
88 330405
88 112455
88 173882
88 19837
88 62786
88 371170
88 104327
88 213138
88 179930
88 213207
88 68089
88 111475
88 138567
88 452455
88 313065
88 259465
88 386694
88 416796
88 87992
88 85669
88 437775
88 215121
88 291845
88 209681
88 103449
88 5155
88 71726
88 253595
88 65789
88 354804
88 122779
88 132367
88 91131
88 176646
88 29064
88 168344
88 177297
88 452878
88 279338
88 319252
88 150934
88 181022
88 132442
88 386767
88 253633
88 171318
88 43625
88 98363
88 160348
88 40812
88 141357
88 392717
88 283188
88 313570
88 89092
88 9666
88 29744
88 232427
88 200048
88 179764
88 231474
88 389060
88 185680
88 455529
88 28795
88 132319
88 204349
88 210716
88 84078
88 82434
88 307629
88 225046
88 299369
88 244002
88 47722
88 187111
88 285605
88 96771
88 442402
88 189928
88 231972
88 314705
88 188327
88 47580
88 314024
88 162821
88 138327
88 218457
88 79619
88 171202
88 351936
88 433519
88 320017
88 19788
88 197510
88 140109
88 160247
88 89557
88 165683
88 347078
88 349121
88 277712
88 258634
88 88973
88 169187
88 51638
88 413195
88 43397
88 266650
88 443479
88 423743
88 50496
88 317968
88 126878
88 122381
88 143799
88 204526
88 223561
88 396304
88 17747
88 270463
88 254669
88 14020
88 365459
88 186826
88 159944
88 162766
88 272480
88 44473
88 85098
88 255592
88 223811
88 281933
88 1847
88 225165
88 190980
88 116624
88 171315
88 450463
88 414869
88 22280
88 121091
88 128799
88 418624
88 217896
88 387492
88 268787
88 282867
88 434283
88 358444
88 4340
88 37005
88 377273
88 195489
88 246111
88 178357
88 262469
88 163276
88 44481
88 139056
88 12899
88 188470
88 453250
88 61126
88 379889
88 163330
88 187005
88 176289
88 49241
88 12738
88 357405
88 127513
88 247388
88 263226
88 99985
88 278652
88 130761
88 129315
88 325346
88 378854
88 24694
88 382164
88 41163
88 30367
88 15584
88 249544
88 325471
88 285285
88 9580
88 186674
88 435251
88 28641
88 3922
88 251384
88 248304
88 271238
88 350982
88 409299
88 397801
88 452344
88 361973
88 299246
88 332301
88 138723
88 213643
88 59036
88 396198
88 156887
88 258682
88 23212
88 437280
88 267687
88 150443
88 286177
88 35727
88 89129
88 368641
88 124719
88 204378
88 238651
88 244054
88 42170
88 27678
88 284920
88 24458
88 401447
88 6490
88 54881
88 187851
88 217960
88 167283
88 204316
88 266476
88 162950
88 68311
88 264455
88 247434
88 232314
88 97465
88 295788
88 242847
88 300186
88 444871
88 363100
88 53662
88 23371
88 70011
88 61733
88 215486
88 108833
88 95796
88 340394
88 222976
88 255385
88 188643
88 82318
88 3998
88 112530
88 286779
88 20916
88 36181
88 245684
88 249613
88 330490
88 391174
88 172560
88 344306
88 132760
88 182289
88 115668
88 38801
88 242782
88 135903
88 259867
88 307659
88 90418
88 451247
88 333565
88 421131
88 428116
88 42850
88 248836
88 108789
88 444588
88 152469
88 432278
88 240835
88 216395
88 236452
88 67795
88 265020
88 365705
88 148501
88 202822
88 137648
88 104160
88 323905
88 411748
88 225098
88 42059
88 361935
88 443145
88 5410
88 345726
88 21231
88 53448
88 357827
88 142013
88 361609
88 42363
88 149994
88 369570
88 188871
88 150451
88 42947
88 137954
88 230245
88 239592
88 21197
88 189768
88 50620
88 59850
88 112555
88 120009
88 29567
88 8138
88 124594
88 3287
88 294416
88 358808
88 164518
88 3125
88 358957
88 183476
88 314430
88 344901
88 439312
88 234682
88 108134
88 16337
88 353640
88 203863
88 114728
88 395983
88 432584
88 357387
88 125855
88 4108
88 80731
88 88924
88 13765
88 11604
88 210279
88 351783
88 454256
88 164141
88 394001
88 142220
88 430189
88 252039
88 64226
88 391467
88 111433
88 248123
88 25734
88 126380
88 281640
88 84440
88 74280
88 47159
88 13716
88 168486
88 276245
88 371450
88 408967
88 204271
88 145993
88 253141
88 233274
88 388909
88 313203
88 421708
88 28253
88 55029
88 354546
88 436582
88 82696
88 34632
88 415537
88 348200
88 174859
88 293715
88 79538
88 13012
88 224366
88 49639
88 377684
88 129396
88 176658
88 394605
88 338717
88 26313
88 19535
88 269496
88 224320
88 237207
88 228990
88 13893
88 8594
88 14857
88 371477
88 392006
88 243422
88 104461
88 66984
88 270380
88 328882
88 209861
88 89916
88 24984
88 131588
88 50755
88 316577
88 405619
88 396956
88 414416
88 51816
88 311364
88 15054
88 167759
88 411466
88 166294
88 265222
88 434641
88 35384
88 136607
88 100489
88 440058
88 185676
88 194558
88 310079
88 190574
88 210575
88 230000
88 272131
88 339621
88 124506
88 252354
88 235577
88 1502
88 312091
88 268593
88 301418
88 48588
88 68292
88 393803
88 363775
88 268812
88 169373
88 325825
88 133301
88 158830
88 177598
88 109833
88 412272
88 241083
88 329375
88 271943
88 209216
88 284244
88 311529
88 138177
88 99978
88 198344
88 238618
88 108272
88 227066
88 218736
88 239554
88 379017
88 377033
88 50948
88 58771
88 379141
88 414304
88 320726
88 328153
88 272683
88 328486
88 234182
88 366652
88 42696
88 335996
88 57541
88 54579
88 195611
88 65932
88 187372
88 446650
88 174785
88 26004
88 291027
88 184845
88 364732
88 218663
88 35950
88 445845
88 401606
88 84181
88 424439
88 101918
88 142269
88 420787
88 321624
88 147628
88 272461
88 142544
88 258580
88 105978
88 385195
88 389356
88 295575
88 79501
88 131665
88 223789
88 207941
88 115221
88 385263
88 318159
88 195634
88 98992
88 143079
88 233658
88 151416
88 455540
88 50550
88 267989
88 59452
88 38778
88 444193
88 157654
88 286469
88 319077
88 25376
88 88243
88 204868
88 62077
88 156356
88 182014
88 179584
88 75376
88 201431
88 229152
88 380758
88 225073
88 248072
88 30413
88 310042
88 23399
88 190358
88 47111
88 40064
88 238485
88 424098
88 239548
88 404974
88 419913
88 45939
88 10217
88 24797
88 364956
88 283125
88 181376
88 130962
88 24683
88 452627
88 68647
88 85075
88 163163
88 40802
88 91440
88 327476
88 360777
88 222401
88 154416
88 205228
88 203108
88 128320
88 431461
88 235010
88 442380
88 15521
88 142173
88 280895
88 425800
88 129954
88 129495
88 233525
88 377759
88 152167
88 50094
88 6558
88 23962
88 199877
88 103570
88 204866
88 124620
88 402783
88 178488
88 334112
88 170214
88 338682
88 38313
88 237795
88 238570
88 377194
88 107036
88 260807
88 157908
88 274831
88 206059
88 201659
88 433010
88 38651
88 259399
88 266354
88 423929
88 57933
88 353963
88 118516
88 367480
88 205329
88 157251
88 33841
88 311460
88 423889
88 411279
88 173836
88 444092
88 102479
88 184580
88 45185
88 363950
88 352583
88 441259
88 387669
88 39954
88 147029
88 243029
88 412127
88 176784
88 428788
88 107362
88 36651
88 60029
88 172464
88 36378
88 59995
88 450638
88 321859
88 234513
88 450471
88 326476
88 71509
88 311113
88 241171
88 393025
88 68256
88 322778
88 36458
88 365755
88 24335
88 56774
88 271171
88 115443
88 19738
88 27316
88 230341
88 106545
88 270092
88 213374
88 28808
88 164206
88 32733
88 188997
88 113357
88 371293
88 139204
88 50912
88 175195
88 133846
88 76051
88 138038
88 406703
88 414587
88 138670
88 83101
88 236115
88 14233
88 193542
88 25091
88 434556
88 224882
88 11718
88 354569
88 11921
88 45913
88 403739
88 344506
88 383039
88 267992
88 367147
88 181519
88 294711
88 104740
88 248859
88 231777
88 24104
88 40565
88 407375
88 167916
88 158159
88 182719
88 391993
88 154076
88 107170
88 222024
88 18884
88 344750
88 76165
88 50808
88 115904
88 419964
88 326176
88 46979
88 323351
88 240423
88 134538
88 175268
88 7245
88 220123
88 350282
88 209949
88 273598
88 254846
88 146820
88 56526
88 256169
88 116103
88 314023
88 132832
88 351764
88 364904
88 110619
88 234239
88 419363
88 255397
88 187458
88 168699
88 194075
88 47525
88 400347
88 117477
88 340099
88 53807
88 272341
88 31934
88 451029
88 329022
88 232316
88 26334
88 367395
88 122096
88 10496
88 36330
88 340305
88 382401
88 221828
88 251039
88 36729
88 191121
88 211805
88 336759
88 364185
88 133782
88 267138
88 60496
88 338671
88 225062
88 70790
88 249419
88 420998
88 205154
88 4859
88 95450
88 3489
88 53042
88 382692
88 139464
88 452219
88 97785
88 224402
88 269941
88 399943
88 315162
88 285734
88 18715
88 369619
88 267017
88 215258
88 335724
88 436738
88 244353
88 144636
88 143384
88 411882
88 39132
88 139082
88 186600
88 133047
88 234842
88 180474
88 85773
88 235720
88 219745
88 90985
88 422840
88 403477
88 5123
88 177661
88 40071
88 149499
88 90534
88 148147
88 103512
88 343387
88 5926
88 80589
88 11960
88 364986
88 372746
88 342834
88 245324
88 348392
88 216709
88 246600
88 179463
88 25208
88 81696
88 411990
88 62425
88 105843
88 324804
88 184548
88 201719
88 130586
88 436444
88 335350
88 410079
88 121895
88 64627
88 151082
88 39792
88 224457
88 175076
88 349449
88 21965
88 196385
88 37483
88 449145
88 38105
88 163350
88 47168
88 180262
88 365650
88 57250
88 87759
88 394353
88 19226
88 414069
88 127988
88 253370
88 43961
88 383765
88 321583
88 121640
88 414477
88 317189
88 221700
88 281751
88 54503
88 324733
88 148772
88 170478
88 35705
88 256840
88 168446
88 422647
88 218309
88 275207
88 206909
88 79191
88 339713
88 145675
88 68599
88 420448
88 25248
88 299269
88 6297
88 98234
88 184082
88 25811
88 442418
88 16115
88 202362
88 96412
88 119813
88 63341
88 258932
88 97443
88 191924
88 84862
88 121431
88 117181
88 168933
88 390847
88 382944
88 262550
88 214026
88 339819
88 297067
88 172967
88 60259
88 55996
88 51552
88 243790
88 31289
88 177405
88 84626
88 249888
88 430712
88 155207
88 71184
88 52928
88 141023
88 5522
88 180915
88 429671
88 440898
88 325038
88 319822
88 389971
88 257444
88 180680
88 239355
88 191769
88 3516
88 406817
88 25315
88 336044
88 153908
88 205433
88 348321
88 187438
88 40432
88 341513
88 442998
88 357473
88 407810
88 360313
88 328272
88 310007
88 161655
88 109672
88 236429
88 175400
88 234560
88 94796
88 139986
88 295103
88 214758
88 441499
88 134424
88 370063
88 31573
88 407970
88 23866
88 436267
88 219940
88 231344
88 216407
88 127630
95 362708
95 197829
95 394156
95 169096
95 25697
94 206189
94 391414
94 180685
94 215030
94 177534
94 373957
94 327596
94 276522
94 50794
94 42177
94 401447
94 205711
94 24552
94 307769
94 140408
94 301427
94 218630
94 291898
94 397796
94 43413
94 78033
94 88419
94 340647
94 436836
94 408300
94 11921
94 25567
94 47973
94 215421
94 385258
94 400133
94 398104
94 16038
94 228699
94 219066
94 317914
94 113628
94 110580
94 55387
94 109333
94 279282
94 58440
94 59784
94 391906
94 447280
94 119137
94 84622
94 2298
262243 40780
99 77675
99 160912
104 66835
262249 16460
106 124601
106 221311
106 204
106 89751
106 3418
106 3944
106 57034
106 59495
106 70576
106 229
106 124403
106 131575
106 214726
106 203635
107 114
110 314
110 148294
262255 252174
262254 14454
114 291
114 201836
119 677
136 157
262280 1553
138 235514
138 114370
138 115562
138 265443
138 384841
138 453143
138 194215
138 402243
138 265815
138 204315
138 5016
138 213730
138 288521
138 155521
138 112739
138 302504
138 162032
138 412717
138 291010
138 176539
138 264974
138 302473
138 282453
138 367553
138 99979
138 389307
138 328046
138 17342
138 408435
138 427099
138 289530
138 309138
138 310180
138 402393
138 279565
138 74984
138 316557
138 306906
138 205155
138 437138
138 337126
138 45811
138 169543
138 252529
138 52137
138 176590
138 358278
138 382038
138 377150
138 118546
138 247412
138 259136
138 407731
138 170236
138 220832
138 262360
138 213956
138 254417
138 426295
138 419849
138 433707
138 411421
138 97917
138 137499
138 182074
138 276075
138 353956
138 446299
138 287073
138 453815
138 280719
138 433276
138 240210
138 278386
138 38484
138 164570
138 297306
138 132505
138 454050
138 363691
138 268690
138 250803
138 350725
138 208425
138 52737
138 106207
138 133103
138 121666
138 442389
138 40782
138 174717
138 279173
138 143384
138 412046
138 440587
138 284053
138 245349
138 235861
138 182425
138 212870
138 344554
138 260319
138 380850
138 354099
138 449253
138 213490
138 322114
138 247946
138 428029
138 249155
138 412998
138 234092
138 298806
138 432166
138 242879
138 423512
138 96809
138 312243
138 51017
138 195608
138 282562
138 281323
138 300649
138 144900
138 253393
138 340804
138 376704
138 133047
138 307018
138 427183
138 196002
138 234789
138 199134
138 399803
138 341132
138 281571
138 86720
138 116441
138 390128
138 302503
138 45200
138 418931
138 403364
138 147595
138 247440
138 384578
138 167538
138 84072
138 384625
138 408190
138 453769
138 268134
138 353820
138 101024
138 168063
138 220401
138 369996
138 343958
138 246060
138 138025
138 256079
138 92904
138 376402
138 416663
138 440186
138 113774
138 321414
138 220774
138 429244
138 80143
138 392281
138 326293
138 38847
138 102898
138 273192
138 97827
138 403164
138 331168
138 305962
138 70769
138 232326
138 16033
138 440588
138 442807
138 353544
138 269420
138 413124
138 422363
138 273677
138 430439
138 391746
138 254614
138 296433
138 434914
138 426492
138 412246
138 404622
138 436844
138 408210
138 312050
138 399619
138 391328
138 280190
138 287927
138 138870
138 388359
138 227702
138 414670
138 202209
138 375561
138 70479
138 122723
138 453064
138 267522
138 398239
138 274946
138 148481
138 387385
138 222605
138 431931
138 391946
138 251963
138 423262
138 454129
138 206705
138 38533
138 411269
138 411454
138 443582
138 256139
138 249772
138 401180
138 279089
138 202788
138 379652
138 371882
138 445471
138 49088
138 176556
138 147232
138 36634
138 113339
138 404115
138 437075
138 372619
138 442334
138 302279
138 150531
138 232492
138 419395
138 300905
138 120491
138 282354
138 427452
138 72413
138 255849
138 160485
138 23857
138 119599
138 317751
138 434967
138 187051
138 342757
138 310438
138 264238
138 300525
138 202136
138 397817
138 303212
138 261712
138 110311
138 438557
138 320816
138 299842
138 177378
138 415392
138 183791
138 256026
138 250729
138 426384
138 202471
138 421065
138 348073
138 423361
138 171000
138 295914
138 155900
138 250157
138 155595
138 359900
138 155980
138 259633
138 432987
138 354330
138 397777
138 196714
138 208132
138 50226
138 20457
138 230476
138 261734
138 351646
138 178117
138 295777
138 446434
138 437442
138 274142
138 189502
138 26430
138 339602
138 237278
138 256903
138 245373
138 239127
138 70407
138 427898
138 328611
138 360562
138 308004
138 450199
138 442678
138 238133
138 451819
138 70923
138 252646
138 242671
138 103508
138 242133
138 248528
138 456288
138 373975
138 231815
138 28199
138 145388
138 438381
138 238757
138 207584
138 349523
138 364163
138 300186
138 262564
138 196722
138 145288
138 212570
138 312520
138 154808
138 339918
138 217709
138 92805
138 240306
138 259705
138 279029
138 93997
138 251706
138 396682
138 12674
138 182184
138 218665
138 370375
138 297158
138 200286
138 334657
138 251912
138 332412
138 227697
138 287613
138 420212
138 321269
138 387679
138 106009
138 451898
138 374875
138 372596
138 436017
138 429544
138 248130
138 247870
138 56381
138 306833
138 235382
138 179584
138 389981
138 160053
138 200037
138 441149
138 374905
138 240377
138 126785
138 363505
138 381646
138 382502
138 302055
138 349135
138 328467
138 387216
138 353055
138 102617
138 166206
138 184994
138 424846
138 151416
138 315414
138 69453
138 313911
138 384063
138 312972
138 366912
138 229097
138 268165
138 426459
138 205522
138 451137
138 148081
138 374771
138 271910
138 420736
138 179952
138 321984
138 290034
138 135095
138 303668
138 220780
138 284276
138 264681
138 205157
138 191021
138 383474
138 302100
138 80654
138 382456
138 2731
138 433095
138 213073
138 429720
138 257961
138 168260
138 239520
138 251572
138 314623
138 258513
138 226054
138 393145
138 370696
138 368701
138 199659
138 326084
138 315594
138 218210
138 450403
138 371543
138 395481
138 171999
138 111493
138 347549
138 166007
138 296082
138 293429
138 182839
138 400362
138 409603
138 178228
138 255078
138 246271
138 342724
138 198293
138 341077
138 270194
138 209082
138 41228
138 125555
138 316537
138 105574
138 451029
138 199167
138 261710
138 424893
138 181409
138 169099
138 258869
138 231492
138 175917
138 26223
138 447315
138 456076
138 289978
138 204409
138 153268
138 329127
138 318020
138 421720
138 353306
138 292823
138 436948
138 42569
138 174311
138 244946
138 135645
138 366161
138 212402
138 450706
138 338641
138 416900
138 331673
138 239121
138 237711
138 332486
138 402816
138 412164
138 165612
138 265747
138 244830
138 423586
138 150576
138 313767
138 298081
138 176167
138 421333
138 253999
138 348175
138 276287
138 455526
138 174684
138 290178
138 67569
138 150478
138 238525
138 343063
138 137117
138 178892
138 387058
138 370593
138 334306
138 365734
138 350180
138 294210
138 303357
138 237741
138 46971
138 254000
138 255105
138 352661
138 448926
138 378686
138 403410
138 364057
138 434729
138 455573
138 271135
138 207934
138 341317
138 386162
138 286955
138 120630
138 28205
138 296377
138 417304
138 276284
138 249510
138 86114
138 373170
143 37735
143 438076
143 69644
143 17655
143 180636
143 40172
143 90879
143 64710
143 103733
143 181263
143 46361
143 24627
143 214501
143 218125
143 168164
143 39809
143 175202
143 7505
143 322718
143 252922
143 92378
143 206807
143 31058
143 176029
143 78541
143 143972
143 28569
143 181266
143 46364
262293 11443
151 164740
152 1546
155 2320
157 5300
157 3377
159 166604
159 39779
262305 16460
168 34893
168 103621
168 85493
168 13998
168 301415
171 397808
171 51661
171 92055
171 247794
171 121058
171 190533
171 223169
171 308407
171 95773
171 54427
171 138311
171 445345
171 6291
171 282494
171 146511
171 367686
171 84449
171 176279
171 176911
171 9423
171 321431
171 55598
171 280593
171 370377
171 295343
173 131212
262328 14454
191 361430
197 11769
262343 30578
202 285368
202 157886
202 74616
210 145561
214 131135
214 302567
214 314593
214 306722
214 446896
214 183249
214 301464
214 337626
214 288401
214 200474
214 401560
214 433503
214 169601
214 253348
214 434675
214 390453
214 92693
214 305744
214 191049
214 434791
214 346861
214 176640
214 173560
214 102984
214 336905
214 241362
214 185719
214 152400
214 384874
214 98596
214 183987
214 247451
214 173646
214 74928
214 150844
214 166675
214 378480
214 289314
214 230752
214 256227
214 301540
214 229542
214 285443
214 315857
214 89908
214 242061
214 132585
214 214105
214 106222
214 154005
214 335232
214 210542
214 172720
214 403739
214 167822
214 380033
214 289578
214 92168
214 192354
214 378310
214 239569
214 131597
214 398554
214 68045
214 271341
224 14454
226 109273
226 439056
226 46732
226 237230
226 256551
226 143601
226 173328
226 20152
226 326194
226 380543
226 107466
226 271820
226 140343
226 226262
226 209079
226 252587
226 152368
226 94101
226 81526
226 173221
226 26746
226 409237
226 300147
226 88407
226 257354
226 5563
226 133712
226 345625
226 49586
226 417313
226 239869
226 240109
226 37700
226 88397
226 16038
226 228883
226 87912
226 425711
226 236817
226 73150
226 207504
226 152327
226 407370
226 419981
226 428167
226 269857
226 232558
226 143984
226 49792
226 86332
226 168503
226 174381
226 229227
226 426805
226 26462
226 73622
226 28217
262372 3360
229 2875
229 397935
229 2872
229 259576
229 282359
229 74689
229 123295
229 418605
229 319487
229 221320
229 170292
229 110893
229 297145
229 195434
229 149977
229 238098
229 227765
229 2861
229 344120
229 52834
229 38004
229 164344
229 139748
229 242176
229 318477
229 271429
229 104067
229 357404
229 256378
229 250762
229 76628
229 313158
229 195751
229 38170
229 283107
229 68735
229 370793
229 146667
229 134940
229 2821
229 101728
229 378190
229 351980
229 227462
229 131601
229 346523
229 46879
229 382281
229 310274
229 284414
229 169061
228 126982
228 241060
228 157832
228 66794
228 270823
228 37999
228 52420
228 102075
228 331735
228 105939
228 38000
228 49668
228 55236
228 232
228 115171
228 46881
228 48057
262375 4200
232 371582
232 385798
234 65416
235 159898
235 279441
235 276124
235 74685
235 286035
235 26677
235 68735
235 240728
235 27738
235 249628
235 150943
235 228743
235 296870
235 406120
235 137073
235 150941
235 55242
236 305717
236 330602
236 292202
236 271800
236 455972
236 354390
236 433436
236 390323
236 203605
236 122573
236 293815
236 341545
236 310000
236 252990
236 305347
236 270939
236 251966
236 407749
236 344247
236 202211
236 275896
236 341238
236 101460
236 301217
236 402846
236 330090
236 428417
236 255351
236 305103
236 379755
236 371941
236 416743
236 453053
236 68239
236 375387
236 271524
236 193460
236 425219
236 191049
236 271526
236 410089
236 90105
236 378736
236 275305
236 313412
236 393884
236 149553
236 389310
236 266601
236 290328
236 159884
236 321053
236 254550
236 433044
236 316508
236 321997
236 180359
236 225535
236 313410
236 275930
236 320723
236 391409
236 205071
236 405364
236 207400
236 195424
236 128692
236 186810
236 273459
236 290903
236 292966
236 363640
236 238997
236 258156
236 315109
236 340769
236 302778
236 389934
236 351925
236 293178
236 257200
236 306916
236 376977
236 266058
236 433495
236 285862
236 238739
236 364642
236 303066
236 415556
236 61185
236 315798
236 352175
236 305620
236 254109
236 429463
236 323045
236 304299
236 352180
236 438040
236 228426
236 272287
236 262570
236 316208
236 360042
236 282726
236 274733
236 372425
236 254383
236 276979
236 455014
236 143682
236 252317
236 363227
236 418354
236 257167
236 196440
236 353924
236 299872
236 453471
236 262500
236 275650
236 309732
236 397841
236 432040
236 354655
236 246220
236 277058
236 117195
236 348109
236 416906
236 101367
236 262450
236 255831
236 455384
236 279547
236 211028
236 138568
236 251931
236 285740
236 291223
236 101697
236 297072
236 302276
236 379811
236 446895
236 260507
236 262633
236 327418
236 401720
236 302960
236 398311
236 262449
236 289065
236 397208
236 66333
236 361205
236 437186
236 326809
236 321681
236 239966
236 273563
236 322766
236 455333
236 238116
236 238746
236 180807
236 66793
236 274958
236 445538
236 266134
236 312037
236 403303
236 388045
236 328869
236 431988
236 263310
236 349011
236 379985
236 224248
236 203616
236 249900
236 373582
236 297561
236 270433
236 274750
236 268909
236 331238
236 454641
236 355856
238 125472
240 147062
240 248184
240 361205
240 101521
240 116384
240 38707
240 108261
240 51731
240 254123
240 292817
240 238765
240 85002
240 331735
240 185536
240 171288
240 38738
240 237882
240 421092
240 96056
240 66794
240 154458
240 68239
240 101524
240 148895
240 157833
240 100925
240 241194
240 313597
240 302677
243 297259
243 241737
243 101489
243 313545
243 101965
243 209274
243 267699
243 159039
243 306909
243 121584
243 189307
243 168694
243 298022
243 188388
243 312704
243 393199
243 191049
243 186485
243 299839
243 404559
243 323217
243 167373
243 276428
243 178920
243 3816
243 272320
243 197932
243 322850
243 195967
243 262940
243 110894
243 314308
243 166381
243 117635
243 344534
243 193903
243 280552
243 318956
243 112238
243 143403
243 146723
250 273023
250 181794
251 191049
249 270650
249 276601
249 308129
249 339282
249 216729
249 2863
249 285974
249 30275
249 273980
249 68698
249 341458
249 248545
249 55246
254 14454
253 32619
253 35947
253 150995
253 278965
253 444828
253 183302
253 4041
262401 677
262402 2662
262409 919
268 267614
268 273908
268 388908
268 290924
268 268555
268 257153
268 283758
268 92327
268 175803
268 355576
268 101481
268 139746
268 365529
268 159898
268 279412
268 265497
268 294223
268 245784
268 445756
268 418583
268 244731
268 278201
268 271082
268 331735
268 287180
268 353433
268 289191
268 455794
268 170852
268 77670
268 270650
268 372959
268 290954
268 130218
268 190566
268 370881
268 181441
268 238930
268 420810
268 138567
268 122018
268 152721
268 265213
268 257750
268 364395
268 231663
268 347274
268 263542
268 382187
268 144020
268 399690
268 295600
268 338359
268 304132
268 274726
268 263454
268 250739
268 102079
268 350432
268 450832
268 361247
268 71531
268 297138
268 115167
268 66395
268 241969
268 368024
268 147885
268 420246
268 211442
268 247504
268 451133
268 313468
268 288886
268 224243
268 131492
268 345946
268 103408
268 300766
268 267650
268 268075
268 160873
268 187887
268 61369
268 304342
268 129578
268 419414
268 296398
268 304031
268 133403
268 360002
268 350869
268 359456
268 339391
268 290328
274 180361
274 184906
274 284986
274 177438
274 276929
274 364400
274 367338
274 392154
274 327654
274 378145
274 448019
274 316115
274 364427
274 107449
274 101467
274 349434
274 296382
274 289397
274 353016
274 252410
274 241133
274 312145
274 295695
274 294737
274 412055
274 298816
274 232166
274 432040
274 153964
274 424955
274 313166
274 271487
274 153969
274 114000
274 229345
274 359914
274 303121
274 447212
274 194958
274 411150
274 251875
274 52866
274 257749
274 241969
274 364136
274 258387
274 104534
274 326952
274 408443
274 303584
274 300511
274 297145
274 103208
274 206694
274 249400
274 374997
274 390825
274 437758
274 296866
274 293766
274 260485
274 270468
274 336609
274 207125
274 419707
274 382947
274 326014
274 238151
274 357426
274 146161
274 286442
274 448351
274 222892
274 267599
274 383981
274 246975
274 414556
274 68240
274 438953
274 308713
274 264354
274 169145
274 422011
274 238997
274 191429
274 292525
274 282849
274 130511
274 105200
274 285388
274 316272
274 269660
274 104281
274 433975
274 174154
283 361958
283 354101
283 287816
283 384499
283 394974
283 290353
283 384171
283 410870
283 282859
283 374561
283 305175
283 383455
283 293388
283 403541
283 451223
283 308334
283 362309
283 363384
283 313803
283 344264
283 290954
283 111334
283 311284
283 159891
283 300179
283 285596
283 419604
283 269114
283 318309
283 362097
283 319058
283 405417
283 242674
283 129436
283 397179
283 344661
283 140703
283 324006
283 265048
283 273664
283 274345
283 303980
283 286748
283 101462
283 393447
283 300007
283 275930
283 358777
283 191227
283 272047
283 252616
283 361351
283 260269
283 256489
283 300761
283 390280
283 357054
283 254383
283 257753
283 153969
283 366068
283 233254
283 267233
283 355239
283 384381
283 215792
283 273193
283 108073
283 306159
283 272695
283 282257
283 323021
283 323537
283 325198
283 331735
283 358672
283 347808
283 276592
283 382360
283 358501
283 291266
283 418189
283 104714
283 319786
283 271530
283 452699
283 104400
283 246132
283 356316
283 106249
283 429801
283 313116
283 419112
283 333562
283 296062
283 263497
283 258911
283 313471
283 308414
283 264741
283 348595
283 182109
283 327654
283 292672
283 353016
283 269131
283 105941
283 428041
283 196517
283 329056
283 225294
283 307194
283 279547
283 257754
283 375386
283 101336
283 291594
283 407033
283 316394
283 293671
283 377629
283 68723
283 325365
283 413662
283 274955
283 268909
283 206525
283 340232
283 291372
283 148822
283 283081
283 178644
283 191049
283 278654
283 284634
283 393254
283 418583
283 318353
283 442697
283 180798
283 274461
283 331279
283 188031
283 398316
283 275082
283 186068
283 161055
283 227401
283 269113
283 295335
283 176321
283 291286
283 297133
283 221832
283 204269
283 389764
283 437968
283 410749
283 302079
283 403180
283 419280
283 388841
283 126979
283 292488
283 285996
283 415279
283 55251
283 375963
283 301819
283 261107
283 34540
283 290660
283 451218
283 439970
283 102962
283 282161
283 367299
283 353121
283 264904
283 203875
283 327823
283 386158
283 275081
283 382985
283 394975
283 454099
283 275010
283 308993
283 369613
283 388385
283 322646
283 349613
283 135660
283 268554
283 289464
283 186065
283 285902
283 436831
283 365737
283 291401
283 228844
283 176886
283 305349
283 398078
283 284912
283 331353
283 351985
283 275066
283 366128
283 388512
283 308593
283 369724
283 398910
283 54814
283 293667
283 110865
283 335240
283 303649
283 410116
283 273166
283 340880
283 132646
283 245561
283 401725
283 283184
283 348974
283 384263
283 129876
283 273675
283 276462
283 350127
283 283112
283 320633
283 298017
283 271730
283 270650
283 270126
283 287804
283 310219
283 376174
283 302677
283 72539
283 299463
283 438254
283 314817
283 321106
283 319337
283 253413
283 305103
283 301608
283 241095
283 400837
283 378687
283 240765
283 118459
283 257755
283 449314
283 300758
283 438498
283 283785
283 148008
283 101811
283 411775
283 165182
283 298703
283 361206
283 385543
283 319934
283 283159
283 295339
283 26677
283 132984
283 289543
283 397223
283 330007
283 296313
283 272745
283 196469
283 365969
283 243748
283 109338
283 150943
283 303631
283 359559
283 362011
283 383939
283 239482
283 260525
283 319097
283 399430
283 312816
283 348087
283 404893
283 363692
283 317653
283 285035
283 303044
283 302711
283 294258
283 411370
283 318038
283 298241
283 407903
283 314384
283 421273
283 291262
283 387097
283 265288
283 395763
283 251831
283 401773
283 316195
283 380766
283 409379
283 273533
283 313456
283 412921
283 421264
283 432387
283 367927
283 381986
283 422341
283 430673
283 289970
283 170693
283 380236
283 323486
283 318728
283 449318
283 314194
283 176593
283 252518
283 421464
283 418696
283 384549
283 185089
283 279494
283 303632
283 422216
283 355497
283 396503
283 334670
283 241134
283 295394
283 266082
283 274446
283 151402
283 407620
283 339607
283 127668
283 340769
283 112240
283 245705
283 380595
283 449352
283 375111
283 149544
283 176885
283 348029
283 259692
283 301975
283 104800
283 333705
283 369115
283 293630
283 265722
283 393005
283 45148
283 345725
283 430570
283 320858
283 257479
283 352944
283 193880
283 454322
283 375112
283 317629
283 361597
283 347829
283 115182
283 267297
283 271685
283 344688
283 274341
283 248546
283 159928
283 112138
283 284913
283 133591
283 391233
283 105860
283 373864
283 382823
283 329245
283 249900
283 263498
283 263189
283 309549
283 442046
283 159898
283 347708
283 266192
283 442736
283 405940
283 358059
283 240704
283 412563
283 312989
283 327657
283 363095
283 159917
283 250942
283 305300
283 364271
283 389513
283 156399
283 372217
283 375387
283 117637
283 280297
283 319043
283 273175
283 318214
283 178247
283 267650
283 359980
283 295111
283 359197
283 313823
283 225340
283 297933
283 66395
283 395365
283 368235
283 372064
283 381185
283 377542
283 399488
283 259827
283 384170
283 311821
283 370030
283 416895
283 388758
283 296960
283 379524
283 400336
283 273194
283 294215
283 289667
283 267699
283 296871
283 229526
283 285567
283 369872
283 320650
283 334068
283 431719
283 115166
283 395427
283 274451
283 255065
283 224247
283 293772
283 368024
283 68940
283 333860
283 384714
283 293326
283 212373
283 273474
283 381527
283 364280
283 329074
283 387096
283 241132
283 422407
283 94666
283 374576
283 320257
283 299348
283 360066
283 217746
283 256749
283 257578
283 185085
283 195431
283 101482
283 324373
283 305390
283 77148
283 305889
283 101397
283 367338
283 440522
283 314573
283 239668
283 261136
283 289684
283 307020
283 280612
283 364173
283 330538
283 281472
283 358722
283 271966
283 264784
283 168284
283 278678
283 305165
283 293349
283 317810
283 411524
283 370095
283 380973
283 113617
283 347006
283 311755
283 319350
283 324593
283 304918
283 267383
283 445653
283 276967
283 453053
283 311301
283 353595
283 367493
283 221841
283 316487
283 276086
283 296406
283 298593
283 376332
283 333188
283 150213
283 188929
283 304902
283 278884
283 304021
283 390544
283 332385
283 365387
283 74715
283 214403
283 323611
283 380903
283 355555
283 292500
283 244864
283 305521
283 101374
283 292871
283 396446
283 278197
283 241159
283 90105
283 368412
283 274616
283 279491
283 232165
283 417517
283 305877
283 439919
283 267665
283 242475
283 257108
283 368894
283 159906
283 322753
283 301069
283 314383
283 378849
283 409380
283 257067
283 265751
283 272725
283 414111
283 111153
283 232174
283 351771
283 304243
283 304908
283 128980
283 331770
283 308036
283 277853
283 299209
283 279833
283 304034
283 311710
283 426495
283 369246
283 299462
283 247921
283 114168
283 258384
283 409086
283 150128
283 398794
283 289103
283 303323
283 18971
283 304959
283 382413
283 321490
283 346166
283 107839
283 111689
283 280183
283 185114
283 357991
283 289262
283 283161
283 408545
283 354709
283 323738
283 293255
283 299208
283 360512
283 278281
283 277714
283 282401
283 244084
283 271006
283 274306
283 290587
283 295523
283 293254
283 275358
283 411556
283 282615
283 381519
283 366345
283 290551
283 249076
283 377656
283 317622
283 238060
283 303872
283 3815
283 424093
283 88260
283 302156
283 240766
283 276987
283 345686
283 104989
283 156930
283 104069
283 369239
283 293753
283 316095
283 433280
283 265649
283 279886
283 270170
283 344613
283 310148
283 365374
283 286760
283 350432
283 286452
283 217565
283 270493
283 256759
283 263467
283 300118
283 364953
283 277607
283 339101
283 234724
283 270506
283 354710
283 273517
283 293507
283 303633
283 302717
283 326785
283 323834
283 271005
283 151425
283 294657
283 303407
283 252795
283 229269
283 289222
283 340971
283 299261
283 149672
283 366132
283 396980
283 321114
283 159908
283 342604
283 269517
283 407279
283 307595
283 382340
283 147885
283 140701
283 375580
283 319687
283 364034
283 393620
283 66793
283 274452
283 293178
283 411788
283 301403
283 301976
283 270524
283 310106
283 282574
283 287507
283 30549
283 172418
283 286952
283 104401
283 442605
283 417543
283 332959
283 377833
283 297652
283 377578
283 241871
283 269455
283 261384
283 285972
283 171024
283 230613
283 147067
283 297877
283 357715
283 402865
283 307463
283 392535
283 355947
283 273345
283 111876
283 115159
283 301342
283 259085
283 319123
283 394777
283 423751
283 275976
283 128404
283 246133
283 272075
283 30444
283 182114
283 264763
283 342133
283 332423
283 261386
283 257568
283 440077
283 412683
283 259577
283 199985
283 352373
283 421769
283 144561
283 291281
283 421275
283 251388
283 275396
283 270096
283 217225
283 362415
283 344896
283 370345
283 367768
283 268855
283 239485
283 364027
283 247488
283 366186
283 370779
283 304831
283 147883
283 279919
283 176327
283 314897
283 236923
283 173201
283 315279
283 216750
283 378481
283 255213
283 407277
283 318687
283 77143
285 408328
287 214752
262429 1553
291 42563
291 65824
291 91442
291 3100
291 325446
291 43799
291 81405
291 1009
291 279880
291 76028
291 39599
291 11168
291 27277
291 54991
291 3841
291 51548
291 10789
291 140638
291 170001
291 411578
291 233346
291 383863
291 33353
291 144257
291 152658
291 101933
291 234511
291 33359
291 1568
291 207742
291 9863
291 197428
291 25330
291 103398
291 1158
291 309896
291 4770
291 80361
291 350203
291 129393
262443 68474
308 328893
308 198790
308 6568
308 210685
308 344581
308 242792
308 169181
308 185423
308 203555
308 67777
308 166261
308 315714
308 50186
308 187732
308 192413
308 146819
308 266188
308 266635
308 437923
308 261031
308 321105
308 109119
308 93922
308 2491
308 198706
308 382211
308 23105
308 313812
308 261466
308 201659
308 253345
308 369237
308 196780
308 440868
308 256618
308 256693
308 411817
308 197236
308 291010
308 153751
308 335232
308 405525
308 358808
308 242082
308 385985
308 241731
308 236469
308 250901
308 166169
310 332389
310 271609
310 194281
310 315028
310 353659
310 383075
310 259833
310 290052
310 319025
310 417177
310 291968
310 353080
310 313424
310 402001
310 432430
310 399634
310 251924
310 342222
310 308731
310 338357
310 417477
310 436657
310 427872
310 295270
310 427386
310 176348
310 404049
310 316604
310 317902
310 383555
310 163970
314 390459
314 384607
314 334704
314 15880
314 432686
314 250334
314 232441
314 39460
314 176910
314 144406
314 224119
314 232258
314 40508
314 41866
314 353868
314 346855
314 35117
314 135566
262461 70164
327 49825
327 296552
327 61988
327 114830
327 246469
327 367067
327 332008
327 101560
327 112701
327 416450
327 371051
327 49882
327 239038
327 400552
327 351717
327 11236
327 91600
327 299059
327 10528
327 17224
327 212502
327 50518
327 453287
327 374415
327 136565
327 109062
327 65348
327 104462
327 240541
327 34597
327 417564
327 240935
327 282114
327 409787
327 234827
327 112919
327 202783
327 306910
327 96075
327 273658
327 398856
327 118103
327 111452
327 385392
327 450680
327 352797
327 220014
327 67594
327 347014
327 135895
327 146727
327 80101
327 385386
327 227571
327 249830
327 280234
327 137977
327 211589
327 115623
327 121690
327 32598
327 51323
327 285368
327 367086
327 172508
327 41540
327 49256
327 37020
327 159393
327 184961
327 48257
262473 7592
262474 34963
330 293165
330 190906
330 241114
330 243960
330 298434
330 401590
330 403306
330 83579
330 13287
330 144688
330 188472
330 67909
330 153125
330 142436
330 382586
330 419606
330 27836
330 175757
330 193213
330 273662
330 208970
330 2602
330 190283
330 158733
330 181620
330 450382
330 159958
330 249669
330 244109
330 121838
330 393088
330 186440
330 214883
330 93589
330 410561
330 135863
330 186298
330 12687
330 33403
330 304253
330 179612
330 302805
330 148826
330 357512
330 147839
330 166946
330 118927
330 233244
330 316862
330 136116
330 18826
330 439039
330 330720
330 150552
330 245632
330 453468
330 437736
330 372673
330 237899
330 134400
330 244746
330 18861
330 230923
330 154234
330 207957
330 43461
330 423235
330 239622
330 194830
330 241417
357 455433
357 200704
357 261190
357 359587
357 198992
357 369512
357 271821
357 187472
357 70335
357 319309
357 234433
357 394693
357 63419
357 87506
357 233429
357 233597
357 228543
357 175654
357 344971
357 380304
357 279233
357 412822
357 449938
357 427434
357 448907
357 190085
357 299808
357 280342
357 102633
357 153735
357 344970
357 53163
357 375822
357 225045
357 390125
357 121974
357 429724
357 158581
357 382220
357 424781
357 352624
363 16626
363 16637
363 359767
363 175565
363 308776
363 64037
363 446335
363 81330
363 95317
369 7420
369 433443
369 4107
369 162390
369 49683
369 226183
369 3360
369 106209
369 3322
369 273426
369 176226
369 6304
369 198044
369 6505
369 113556
369 227581
369 452892
369 413362
369 139776
369 165082
369 18663
369 224255
369 42369
369 243674
369 4801
369 239961
369 43321
369 181044
369 149736
369 183780
369 1586
369 103646
369 420499
371 2033
374 183324
374 93521
374 446179
374 396120
374 30638
374 423912
374 297044
374 151683
374 28827
374 60559
374 189208
374 275616
374 21198
374 172640
374 278316
374 138539
374 299063
374 143928
374 272025
374 89912
374 355509
374 428704
374 309475
374 221892
374 313256
374 156931
374 374224
374 141476
374 407162
374 317962
374 399724
374 184155
374 247605
374 249776
374 160905
374 213776
374 305883
374 286457
374 2491
374 2696
374 61013
374 165382
374 227951
374 232451
374 211603
374 129820
374 177529
374 48782
374 172574
374 301312
374 129954
374 153278
374 89904
374 56356
374 141739
376 136319
376 36874
376 188460
376 179244
376 4845
376 6411
376 76379
376 83708
376 68599
376 82695
376 112232
376 221462
376 55447
376 45358
376 173462
376 24386
376 94660
376 156423
376 8263
376 76510
376 12961
376 334573
376 229137
376 414910
376 164033
376 153840
376 105475
376 14954
376 240958
376 109900
376 16038
376 46293
376 343435
376 865
376 62279
376 94421
376 156552
376 1942
376 375760
383 388359
383 279319
383 319374
383 290112
383 306966
383 333385
383 122431
383 156598
383 144688
383 168785
383 75646
383 229949
383 107691
383 58376
383 134785
383 169162
383 84261
383 432325
383 193775
383 294704
383 269495
383 186317
383 423413
383 283934
383 267477
383 251536
383 327834
383 347631
383 450953
383 407231
383 111974
383 263849
383 91401
383 337202
383 171849
383 38941
383 387385
383 332886
383 315388
383 253370
383 217320
383 195558
383 109119
383 92471
383 105843
383 215159
383 191411
383 339112
383 309742
383 144640
383 237498
383 310362
383 400353
383 204087
383 111606
383 437755
383 110277
383 238397
383 69246
383 176867
383 400499
383 119599
383 237236
383 259566
383 120586
383 97462
383 226466
383 36809
383 269656
383 67043
383 234457
383 317423
383 431800
383 288562
383 359514
383 386635
383 123832
383 426295
383 349183
383 166651
383 43597
383 362172
383 357238
383 10109
383 231574
383 283975
383 268681
383 422289
383 10086
383 63736
383 281753
383 211045
383 206187
383 62463
383 126590
383 196334
383 365151
383 27311
383 313669
383 200943
383 288393
383 148954
383 186104
383 143921
383 185125
383 175112
383 265204
383 178095
383 424516
383 398800
383 10087
383 121308
383 244405
383 263474
383 263808
383 158162
383 58961
383 400442
383 12881
383 294381
383 12613
383 318020
383 255849
383 29438
383 454129
383 230608
383 199750
383 76172
383 23546
383 435675
383 135377
383 211795
383 2075
383 435102
383 324574
383 408392
383 234859
383 113947
383 307026
383 195586
383 280402
383 332317
383 129351
383 37803
383 170881
383 77479
383 274344
383 290128
383 149896
383 25749
383 160514
383 398469
383 389874
383 289412
383 421131
383 300880
383 450308
383 72218
383 260857
383 95501
383 407757
383 173993
383 214194
383 435797
383 28375
383 98557
383 12899
383 135414
383 228241
383 155980
383 28205
383 72413
383 143337
383 145554
383 36634
383 415070
383 274380
383 383131
383 114949
383 401493
383 401105
383 60662
383 149412
383 103586
383 125573
383 298613
383 332486
383 38138
383 340403
383 119740
383 424258
383 395142
383 385265
383 79449
383 441620
383 200400
383 238023
383 187496
383 227067
383 309301
383 399224
383 259714
383 327468
383 413310
383 164244
383 281323
383 71528
383 59852
383 151537
383 58683
383 345642
383 301566
383 186758
383 88995
383 29070
383 148478
383 89114
383 251706
383 189403
383 181428
383 289713
383 339799
383 450389
383 130769
383 21825
383 36973
383 215285
383 418709
383 223131
383 221429
383 197043
383 333410
383 173361
383 52923
383 272666
383 109734
383 35950
383 100145
383 180496
383 196920
383 22824
383 392483
383 261259
383 132322
383 29424
383 276795
383 130755
383 1003
383 66763
383 349561
383 33015
383 148140
383 287666
383 256687
383 312728
383 138539
383 276166
383 260807
383 224628
383 448926
383 418261
383 226794
383 240806
383 388221
383 158780
383 217458
385 9673
385 202609
385 305968
385 78413
385 244631
385 179728
385 203508
385 363426
385 229840
385 255849
385 164694
385 246596
385 135840
385 169133
385 195847
385 115005
385 27176
385 23287
385 21736
385 27687
385 79639
385 324003
385 31054
385 93589
385 156689
385 27590
385 129009
385 296937
385 83393
385 111961
385 99867
387 113774
387 180332
387 221263
387 63986
387 95394
387 228998
387 100088
387 230760
387 105491
387 220557
387 455483
387 84474
387 95439
387 126333
387 429735
387 4406
387 214170
387 236401
387 146166
387 51931
387 106351
387 62627
387 163037
387 99450
387 91366
387 30011
387 286986
387 451437
387 221448
387 27526
387 56952
387 236398
387 420666
387 181613
387 235306
387 434716
387 42964
387 173476
387 12700
387 55488
387 339842
387 19605
387 2602
387 171911
387 252859
387 115557
387 82762
387 436488
387 260365
387 71046
387 40533
387 51638
387 97764
387 281507
387 73122
387 42369
387 106735
387 145227
387 247010
387 24954
387 145231
387 415373
387 199908
387 205375
387 247512
387 140271
387 327119
387 113084
387 103629
387 432405
387 392714
387 167947
387 163428
387 9931
387 99874
387 58766
387 126659
387 318739
387 260015
387 134618
387 322090
387 228379
387 156176
387 108751
387 90298
387 282734
387 120897
387 22345
387 293533
387 263092
387 149705
387 193904
387 39835
387 113655
387 280272
387 444044
387 337950
387 24387
387 377891
387 12790
387 199834
387 76977
387 170357
387 345617
387 25728
387 94453
387 30091
387 18992
387 136126
387 21323
387 454956
387 186275
387 125752
387 398420
387 168616
387 31172
387 414370
387 427194
387 258769
387 395006
387 70948
387 90023
387 5122
387 148218
387 165528
387 106978
387 359356
387 148667
387 233687
387 160838
387 86242
387 144146
387 55938
387 161084
387 213584
387 71943
387 82858
387 11375
387 62054
387 83329
387 378518
387 95273
387 148923
387 48526
387 258496
387 73784
387 207888
387 116838
387 76934
387 174289
387 27584
387 155913
387 148660
387 240889
387 279139
387 121993
387 91055
387 249630
390 511
390 3027
390 66109
390 677
401 22988
262552 198048
417 66077
417 129960
421 8219
262572 9323
428 80740
431 57222
431 38452
431 207157
431 132619
431 202854
431 136128
431 170488
431 201793
431 223135
431 2308
262575 4880
433 82444
262581 1988
262586 16460
443 53136
443 67110
451 35785
451 151778
262595 14664
454 229120
454 75355
454 138023
454 185213
454 118790
454 94597
454 30982
455 5538
455 86133
455 10967
455 391417
461 318780
461 52431
461 17091
461 11660
461 137022
461 277603
461 39464
262607 58992
464 385985
464 119946
464 197815
464 240815
464 285892
464 90022
464 453897
464 212440
464 414543
464 108134
464 281242
464 34555
464 51321
464 299468
464 146032
464 76124
465 96502
465 248211
465 190364
465 197564
465 362209
465 238117
465 211310
465 382974
465 264197
465 276287
465 168935
465 360195
465 421522
465 361217
465 286695
465 132585
465 147692
465 32035
465 257909
465 358702
465 176200
465 161067
465 83072
465 202609
465 350361
465 342032
465 78812
465 225254
465 315200
465 286511
465 39044
465 42825
465 134981
465 267189
465 171827
465 210004
465 373843
465 201583
465 202283
465 231477
465 255126
465 129875
465 372090
465 386424
465 155612
465 192347
465 285099
465 357134
465 130530
465 78515
465 450857
465 314179
465 271341
465 96181
465 279381
465 75700
465 413710
465 273085
465 366979
465 183535
465 390063
465 60706
465 22610
465 402720
465 443799
465 401504
465 219385
465 107712
466 94716
466 677
466 30324
262610 65097
467 29468
471 73917
473 34324
474 176510
474 75856
474 3424
262620 299815
478 66114
478 111713
478 253775
262623 444914
480 404800
480 167827
480 250789
480 5528
480 233689
480 217763
480 74827
480 180479
480 237710
480 166219
480 297175
483 242410
489 126057
489 239387
489 50437
489 194381
489 171377
489 93719
489 408274
489 255223
489 281833
489 261575
489 196184
489 385427
489 182262
489 214671
489 120915
489 92810
489 9110
489 187495
489 394841
489 173038
489 5380
489 360096
489 427639
489 143537
489 214119
489 54424
489 295533
489 357862
489 277156
489 208312
489 331589
489 284791
489 284727
489 415286
489 266747
489 297228
489 361197
489 410278
489 228892
489 13893
489 212870
489 284393
489 455794
489 244854
489 345597
489 289625
489 215213
489 240747
489 380121
489 248199
489 344495
489 229233
489 8576
489 330752
489 403728
489 440967
489 425768
489 41160
489 13516
489 386891
489 130701
489 289624
489 230323
262638 2823
502 7245
502 79461
502 6599
502 39782
502 169324
502 432969
502 44233
502 40886
505 127855
505 128334
505 214487
505 511
505 452495
505 135514
505 348541
505 36773
505 246466
505 19776
505 188336
505 50207
505 96155
505 33268
505 48800
505 170743
505 242802
505 231737
505 221443
505 316539
505 41354
505 2188
505 273153
505 215672
505 4946
505 123676
505 46124
505 1398
505 76184
505 44321
505 387032
505 261455
505 8737
505 245094
505 35421
505 139096
505 403433
505 38908
505 107645
505 207859
505 192787
505 15363
505 166140
505 326953
505 33995
505 225614
505 321207
505 44925
505 101052
505 242968
505 48039
505 13938
505 144844
505 200841
505 31061
505 3025
505 232818
505 140965
505 25202
505 168948
505 16268
505 17852
505 51638
505 4947
505 306812
505 33813
505 286509
505 168155
505 64375
505 324927
505 346335
505 138454
507 189461
507 204286
508 139807
511 121638
511 52905
511 221378
511 157192
511 11960
511 138152
511 333534
511 84032
511 7100
511 35952
511 157985
511 9512
511 26745
511 419721
511 344063
511 198231
511 381497
511 148618
511 157856
511 417833
511 50948
511 33813
511 73097
511 296008
511 320702
511 112753
511 435453
511 224583
511 4361
511 116640
511 115442
511 13078
511 257607
511 74986
511 288067
511 84964
511 30034
511 62789
511 286444
511 43149
511 267467
511 106197
511 13139
511 371320
511 4075
511 124519
511 452892
511 64461
511 46056
511 86520
511 401447
511 61211
511 92769
511 6940
511 155540
511 22113
511 37443
511 300832
511 230101
511 63556
511 34555
511 265327
511 373087
511 4830
511 81150
511 114527
511 42947
511 437805
511 282188
511 144361
511 182202
511 12132
511 57040
511 92793
511 176485
511 187678
511 48039
511 7245
511 396486
511 113223
511 452298
511 49950
511 134420
511 326876
511 57297
511 22037
511 335816
511 153699
511 207187
511 83693
511 40075
511 89775
511 76218
511 74772
511 27806
511 236477
511 144026
511 129658
511 18168
511 67215
511 42637
511 11622
511 5163
511 74834
511 363023
511 99620
511 51181
511 69269
511 29568
511 66801
511 35403
511 220975
511 368257
511 143603
511 121955
511 179606
511 73260
511 155821
511 25524
511 6023
511 174695
511 64494
511 440168
511 25065
511 191128
511 32515
511 44616
511 16038
511 158312
511 352201
511 392916
511 10231
511 403365
511 25743
511 152597
511 165668
511 35421
511 162863
511 83708
511 28580
511 432084
511 195680
511 190463
511 85424
511 296759
511 41230
511 239973
511 448592
511 37813
511 5438
511 427781
511 30239
511 124520
511 100123
511 252249
511 188979
511 11038
511 92775
511 189816
511 27676
511 34470
511 72906
511 19366
511 19886
511 5075
511 378310
511 121428
511 69242
511 129923
511 115005
511 140965
511 81405
511 292596
511 9282
511 147749
511 32959
511 41632
511 50039
511 7411
511 15272
511 45485
511 55401
511 219231
511 15479
511 145325
511 93939
511 7480
511 54298
511 20544
511 196038
511 87382
511 40340
511 156085
511 13938
511 184792
511 126371
511 226432
511 70492
511 402977
511 161619
511 23205
511 316423
511 196931
511 46083
511 170161
511 6130
511 230265
511 150322
511 64375
511 86358
511 192879
511 112992
511 73091
511 96020
511 193741
511 126308
511 442153
511 36155
511 10955
511 25203
511 132362
511 38310
511 27768
511 304044
511 337203
511 23113
511 445626
511 21979
511 14198
511 178208
511 137549
511 20261
511 372753
511 30153
511 244393
511 11230
511 172089
511 196658
511 37609
511 39989
511 50401
511 77562
511 25031
511 184288
511 180915
511 25756
511 234511
511 80881
262658 262659
262659 30230
262660 53357
515 169442
515 201761
515 83620
515 221310
515 188822
515 51722
515 125279
515 1988
515 197441
515 88383
515 201831
515 451977
515 245192
515 170875
515 132018
515 376867
515 385110
515 60210
515 226861
518 92785
533 10156
533 188979
533 41802
533 26438
262678 15123
541 182590
541 9868
541 42287
262686 262685
548 5086
548 163211
548 394840
548 22610
548 109966
548 392230
548 71915
548 28347
548 94017
548 193581
548 70523
548 120594
548 421801
548 29466
548 148480
548 77379
548 181727
548 63049
548 110286
548 187000
548 125899
548 131801
548 167133
548 150785
548 160291
548 13396
548 225171
548 138794
262694 169932
262694 442295
552 4304
562 199968
562 142549
562 36799
262708 69237
565 9323
565 245268
565 3300
566 9421
568 16436
569 55382
572 829
572 101586
572 56529
572 373642
572 393036
572 130260
572 226182
572 30354
572 206862
574 96088
574 15026
577 18811
577 147467
577 313485
577 166217
577 121667
579 107289
580 49071
580 86501
581 46847
582 197201
582 26940
582 249181
582 229758
582 237417
582 221439
582 158969
582 142215
582 184617
582 229542
582 89306
582 302110
582 332111
582 154918
582 350760
582 411536
582 434060
582 251800
582 222843
262723 60493
262733 406185
589 47242
589 32226
590 130754
594 208509
262738 70048
597 371394
598 259472
598 103726
598 46024
598 203263
598 269160
598 176544
598 436841
598 416134
598 99480
598 310859
598 195737
598 281055
598 374073
598 249920
598 154377
598 247017
598 51586
600 3808
262761 19966
619 64328
262766 16460
631 7312
262775 262776
638 31354
645 211221
262793 186674
650 91774
658 330125
658 194316
658 191894
658 345529
658 20814
658 6310
658 281242
658 340854
658 23061
658 442263
658 229391
658 441871
658 415601
658 242287
658 98531
658 215071
658 329260
658 170743
658 117854
658 287310
658 41674
658 226304
658 345515
658 453871
658 49273
658 169783
658 214880
658 133338
658 14123
658 4557
658 186319
658 108279
664 677
262809 99369
667 6633
667 103416
667 161289
667 214880
262812 52469
262812 8942
672 89784
677 388272
677 26151
677 19818
677 12159
677 277933
677 219855
677 436333
677 259754
677 216392
677 113120
677 353102
677 152011
677 179257
677 11769
677 77192
677 256282
677 118909
677 27868
677 420580
677 70410
677 423685
677 400734
677 240968
677 57712
677 75132
677 214206
677 158902
677 237106
677 442906
677 299792
677 129792
677 37434
677 42194
677 51800
677 250420
677 323032
677 322086
677 237556
677 416134
677 68192
677 430715
677 280315
677 220062
677 397227
677 420961
677 229277
677 42971
677 177013
677 83635
677 12066
677 284092
677 98478
677 245968
677 217214
677 374730
677 95770
677 226183
677 97628
677 118378
677 334184
677 86843
677 74103
677 276436
677 114376
677 222236
677 136594
677 396559
677 161100
677 193361
677 22261
677 213159
677 135078
677 197741
677 168287
677 283945
677 431297
677 365037
677 150571
677 158370
677 342210
677 154286
677 266400
677 189047
677 282740
677 279088
677 256563
677 222746
677 107364
677 87493
677 257535
677 279203
677 23355
677 25014
677 109975
677 225345
677 71117
677 181639
677 225627
677 27903
677 328086
677 331181
677 193316
677 207259
677 152167
677 428121
677 84117
677 110091
677 74594
677 207813
677 80208
677 120252
677 268273
677 150512
677 340107
677 226474
677 84841
677 326958
677 292056
677 216018
677 234550
677 47218
677 366083
677 278652
677 379030
677 234842
677 145589
677 3362
677 229966
677 97535
677 50968
677 270008
677 130142
677 259638
677 40886
677 242084
677 110967
677 218824
677 76422
677 136972
677 6899
677 215112
677 272131
677 250269
677 369779
677 163504
677 199731
677 22385
677 308140
677 138383
677 248596
677 434925
677 192549
677 164788
677 91890
677 217056
677 39814
677 206469
677 71311
677 18777
677 238581
677 116196
677 42180
677 230245
677 51808
677 203555
677 31653
677 32442
677 439854
677 319280
677 338391
677 402507
677 165309
677 186036
677 58508
677 25513
677 64494
677 238710
677 310488
677 43210
677 200230
677 139218
677 13798
677 11341
677 177081
677 386226
677 87401
677 235155
677 423890
677 139112
677 275110
677 198410
677 269152
677 28574
677 50750
677 296598
677 242657
677 447454
677 170881
677 37968
677 292946
677 164400
677 261572
677 177073
677 223190
677 49543
677 91052
677 92693
677 417245
677 171165
677 51203
677 215747
677 191713
677 444840
677 387596
677 93897
677 219047
677 24690
677 369823
677 248389
677 361587
677 437829
677 44306
677 237522
677 6316
677 233068
677 36668
677 432863
677 406849
677 99461
677 438425
677 256359
677 13598
677 246221
677 401867
677 45697
677 99751
677 34579
677 379922
677 45559
677 252038
677 49957
677 287121
677 288724
677 394065
677 103829
677 229978
677 322239
677 445361
677 178208
677 220651
677 108758
677 84062
677 13104
677 175444
677 120391
677 298467
677 134157
677 239186
677 153539
677 406211
677 42295
677 288699
677 176439
677 347819
677 447934
677 220797
677 31464
677 134108
677 68201
677 97692
677 187423
677 390334
677 215964
677 145533
677 42238
677 359990
677 256832
677 220966
677 6625
677 126015
677 81678
677 427884
677 171191
677 60496
677 254000
677 382227
677 214609
677 356077
677 218361
677 221448
677 113279
677 100872
677 217739
677 202184
677 209806
677 196412
677 195541
677 195304
677 273057
677 206636
677 17380
677 416497
677 263373
677 342264
677 375534
677 320973
677 254934
677 206386
677 140724
677 121003
677 242083
677 210086
677 95611
677 51172
677 121428
677 145483
677 12058
677 341203
677 213971
677 281001
677 50539
677 389698
677 145750
677 251786
677 95392
677 401802
677 10857
677 261862
677 429627
677 230135
677 17699
677 10686
677 324619
677 222783
677 40146
677 291899
677 187370
677 118708
677 178727
677 114263
677 64993
677 50730
677 25129
677 220244
677 442102
677 6879
677 38844
677 4564
677 346147
677 177150
677 428120
677 216407
677 164197
677 115477
677 300099
677 441981
677 47525
677 408259
677 130020
677 79632
677 399001
677 50286
677 209674
677 185447
677 363127
677 189038
677 168146
677 36639
677 393980
677 448217
677 208962
677 227286
677 178442
677 19564
677 445796
677 83291
677 298342
677 425254
677 13454
677 450715
677 421365
677 333847
677 336594
677 201097
677 222116
677 382253
677 88716
677 162857
677 168429
677 279416
677 404485
677 230686
677 398882
677 186177
677 313546
677 180981
677 292882
677 400458
677 302197
677 114828
677 141194
677 253198
677 20819
677 267663
677 224665
677 201659
677 277265
677 406194
677 206728
677 190748
677 231598
677 216924
677 171607
677 23095
677 350156
677 36126
677 185245
677 97754
677 329422
677 309032
677 318431
677 192582
677 85585
677 376286
677 77820
677 283885
677 213403
677 56449
677 152178
677 455143
677 78278
677 438072
677 274151
677 104624
677 412041
677 168952
677 338079
677 328954
677 161320
677 174537
677 223258
677 455694
677 401624
677 240339
677 280872
677 80204
677 210565
677 110191
677 168318
677 62647
677 30113
677 211465
677 110430
677 225089
677 86278
677 171646
677 222514
677 218721
677 95936
677 403046
677 320402
677 12842
677 30239
677 442911
677 47355
677 254864
677 24926
677 354428
677 179849
677 4544
677 129732
677 20072
677 192565
677 97984
677 451818
677 225491
677 53966
677 11626
677 10740
677 434150
677 226001
677 360756
677 440766
677 197003
677 145625
677 51181
677 217399
677 22470
677 230701
677 375148
677 216626
677 366342
677 195535
677 32607
677 103716
677 16940
677 437740
677 215978
677 79623
677 217383
677 433233
677 23645
677 48207
677 448710
677 302608
677 327935
677 81681
677 291779
677 88419
677 230860
677 142701
677 53430
677 129254
677 358552
677 274644
677 98538
677 302633
677 99937
677 34481
677 427015
677 81297
677 35845
677 202165
677 413601
677 77480
677 428092
677 195698
677 307864
677 338175
677 150305
677 374017
677 253135
677 172972
677 53428
677 212206
677 168933
677 345966
677 58635
677 211344
677 310218
677 213065
677 209616
677 183030
677 186690
677 133891
677 242621
677 397478
677 450952
677 5860
677 152324
677 414486
677 162220
677 169718
677 330654
677 21173
677 15767
677 303654
677 210083
677 255880
677 227942
677 120630
677 412842
677 23552
677 161596
677 77172
677 428536
677 431909
677 125263
677 224578
677 425379
677 219299
677 111568
677 144070
677 127607
677 83269
677 191829
677 187889
677 25486
677 239343
677 68256
677 293109
677 366926
677 333585
677 63953
677 267017
677 436734
677 149312
677 148565
677 329323
677 180973
677 196282
677 213374
677 282630
677 244558
677 419634
677 31413
677 346666
677 135259
677 222886
677 171665
677 176700
677 208981
677 152035
677 144342
677 357956
677 447010
677 86348
677 427439
677 219464
677 184549
677 151837
677 163354
677 218293
677 23968
677 348321
677 226464
677 345278
677 296696
677 218595
677 65752
677 385963
677 268801
677 48292
677 337877
677 345053
677 11037
677 233758
677 387136
677 221681
677 446977
677 447858
677 125113
677 103986
677 274119
677 13565
677 81181
677 164189
677 233117
677 221702
677 137195
677 337211
677 339198
677 164121
677 70457
677 210716
677 218610
677 323993
677 49649
677 433188
677 163434
677 411907
677 53968
677 274187
677 217338
677 312139
677 77896
677 193353
677 281623
677 351615
677 15801
677 290055
677 418565
677 364096
677 230311
677 217471
677 237917
677 316846
677 165239
677 88209
677 218494
677 427260
677 211158
677 208527
677 216481
677 19987
677 435884
677 435808
677 260130
677 201220
677 251227
677 131140
677 187966
677 100954
677 165036
677 220281
677 455136
677 327951
677 395836
677 17585
677 25531
677 282071
677 72118
677 82252
677 247176
677 8839
677 183920
677 432629
677 325428
677 256153
677 297774
677 4657
677 318147
677 163063
677 48245
677 197102
677 386554
677 105360
677 271677
677 152124
677 222374
677 368770
677 214128
677 148858
677 172283
677 211985
677 6147
677 142028
677 200997
677 76738
677 322462
677 361620
677 76037
677 34620
677 32613
677 108136
677 25307
677 92846
677 375807
677 306797
677 208872
677 17191
677 241963
677 123661
677 387209
677 428436
677 73835
677 217086
677 84827
677 11038
677 114784
677 123289
677 67215
677 217992
677 36287
677 187781
677 23055
677 302892
677 272480
677 171887
677 205972
677 58895
677 150890
677 384817
677 115915
677 314863
677 377305
677 25372
677 66704
677 391400
677 361540
677 437928
677 179146
677 331058
677 436374
677 216823
677 95260
677 31094
677 2883
677 4029
677 385800
677 82696
677 164208
677 349867
677 334419
677 114011
677 125930
677 356749
677 74752
677 107918
677 291571
677 314621
677 374937
677 93174
677 334112
677 23956
677 230967
677 67504
677 247478
677 217999
677 234615
677 260317
677 138354
677 18019
677 17135
677 441501
677 307510
677 88840
677 240806
677 322404
677 110220
677 341611
677 201397
677 440842
677 330167
677 329111
677 171732
677 337294
677 13871
677 79145
677 234106
677 369533
677 157176
677 223606
677 121325
677 156110
677 442095
677 424786
677 321484
677 405644
677 126780
677 406913
677 252039
677 42308
677 122310
677 231178
677 363775
677 265483
677 292656
677 35950
677 1050
677 99175
677 347012
677 23374
677 274685
677 4236
677 334930
677 150050
677 114236
677 151668
677 156189
677 390731
677 326319
677 116304
677 351221
677 244054
677 333301
677 2984
677 242819
677 41593
677 85813
677 179784
677 401870
677 231147
677 242370
677 181266
677 187867
677 221118
677 198709
677 145232
677 15857
677 27311
677 240366
677 114599
677 88314
677 39952
677 275315
677 437813
677 162263
677 268126
677 285133
677 266194
677 14065
677 43183
677 25050
677 394049
677 218657
677 163577
677 43750
677 211365
677 6712
677 15435
677 289748
677 132026
677 5892
677 243401
677 52889
677 95617
677 5177
677 199856
677 417803
677 145504
677 199228
677 337159
677 286857
677 162868
677 91854
677 17141
677 210553
677 447918
677 203574
677 194996
677 54747
677 372032
677 110046
677 219069
677 182011
677 329421
677 32659
677 393492
677 243620
677 259121
677 387902
677 108871
677 75563
677 313340
677 138412
677 203622
677 248115
677 7742
677 42722
677 91831
677 265719
677 339266
677 131180
677 395033
677 216368
677 78188
677 224187
677 202183
677 264495
677 226294
677 148830
677 433187
677 385346
677 226698
677 355081
677 360076
677 401181
677 385454
677 133889
677 319228
677 334187
677 395438
677 279964
677 278942
677 268813
677 20636
677 267413
677 359427
677 299369
677 206063
677 251137
677 335151
677 63908
677 208946
677 14813
677 120739
677 454358
677 450661
677 144848
677 235034
677 115444
677 9279
677 232379
677 222439
677 274363
677 344125
677 417801
677 218979
677 221476
677 260014
677 33529
677 440512
677 88225
677 371556
677 50948
677 426643
677 383863
677 210830
677 250019
677 118649
677 129318
677 422634
677 453806
677 124790
677 306644
677 75912
677 198875
677 144322
677 135320
677 449409
677 38653
677 216940
677 84399
677 23953
677 140158
677 207850
677 147373
677 230283
677 235448
677 57541
677 141023
677 228655
677 100179
677 231368
677 3027
677 94616
677 310913
677 143861
677 35655
677 9964
677 403233
677 223381
677 110219
677 215696
677 358553
677 358793
677 382718
677 221927
677 18740
677 167953
677 105731
677 226593
677 21392
677 414398
677 81924
677 327317
677 296747
677 219418
677 440039
677 419513
677 386694
677 257094
677 94622
677 199793
677 433603
677 11249
677 454563
677 108383
677 234241
677 142710
677 78091
677 48327
677 95868
677 389890
677 212510
677 329330
677 146726
677 258664
677 67315
677 285608
677 451911
677 225985
677 116472
677 302631
677 247778
677 156277
677 216395
677 135404
677 234664
677 361710
677 148273
677 128405
677 218762
677 451060
677 288757
677 255379
677 256840
677 227808
677 220539
677 382973
677 118388
677 398536
677 22627
677 232805
677 415815
677 95547
677 451072
677 85645
677 401358
677 218193
677 328107
677 427723
677 45364
677 45672
677 226339
677 222262
677 358818
677 40802
677 385154
677 166463
677 22248
677 417900
677 143828
677 20273
677 63788
677 181986
677 433870
677 80068
677 286938
677 81405
677 60969
677 383768
677 234323
677 291285
677 452848
677 127647
677 180083
677 256071
677 142295
677 216754
677 186991
677 429876
677 431173
677 26334
677 383718
677 215613
677 237210
677 392750
677 261609
677 397022
677 180095
677 392088
677 184359
677 147752
677 399835
677 44009
677 230247
677 58755
677 72696
677 197980
677 234024
677 240345
677 196779
677 106960
677 180293
677 263685
677 216273
677 69948
677 126956
677 451166
677 143547
677 251697
677 67459
677 312617
677 179136
677 207566
677 237353
677 224797
677 47358
677 75562
677 244505
677 90555
677 398691
677 40909
677 291027
677 32592
677 11295
677 100955
677 13890
677 397891
677 192879
677 258473
677 39943
677 267680
677 300153
677 167384
677 50910
677 283188
677 242909
677 403300
677 197320
677 280379
677 216094
677 343472
677 66987
677 298417
677 195447
677 23572
677 11325
677 300430
677 150934
677 255249
677 3658
677 30213
677 99495
677 56875
677 442226
677 90784
677 326812
677 218945
677 217148
677 16379
677 138924
677 49571
677 216363
677 345162
677 47477
677 152014
677 127378
677 276350
677 188048
677 300435
677 244393
677 142421
677 238197
677 213965
677 261274
677 341187
677 281891
677 60119
677 100016
677 257161
677 180260
677 305318
677 109437
677 310207
677 403403
677 282233
677 197525
677 291928
677 281915
677 57608
677 73073
677 273946
677 304116
677 80881
677 39782
677 225947
677 9957
677 291183
677 136760
677 182014
677 15807
677 201192
677 96445
677 148974
677 373020
677 430804
677 197347
677 24676
677 340760
677 21311
677 441982
677 25125
677 4481
677 149801
677 17883
677 63291
677 150701
677 23605
677 65782
677 215055
677 295578
677 55283
677 418380
677 211001
677 209610
677 394112
677 9942
677 33569
677 213086
677 317990
677 247724
677 230812
677 203705
677 388286
677 127735
677 50015
677 426450
677 247056
677 330217
677 442623
677 380581
677 123107
677 155167
677 83952
677 215750
677 198039
677 100578
677 127585
677 95796
677 269124
677 376016
677 448013
677 240612
677 6473
677 247802
677 291970
677 284098
677 403885
677 52232
677 126922
677 159290
677 93347
677 215991
677 382659
677 192339
677 448034
677 89068
677 452739
677 234378
677 125459
677 196218
677 22146
677 88683
677 121432
677 213236
677 184861
677 285439
677 304920
677 429200
677 373758
677 191984
677 204626
677 46088
677 75109
677 151386
677 354546
677 129695
677 213271
677 285185
677 443128
677 225725
677 23424
677 112032
677 444072
677 4352
677 403082
677 38349
677 449763
677 219564
677 302230
677 36659
677 426013
677 151045
677 439561
677 190130
677 196038
677 41527
677 161870
677 369461
677 437023
677 92285
677 4307
677 273672
677 116603
677 400002
677 220052
677 150105
677 344791
677 22687
677 88495
677 167857
677 418167
677 412948
677 428108
677 122928
677 371320
677 304104
677 90120
677 269983
677 135154
677 73994
677 105956
677 239765
677 387537
677 147404
677 53453
677 213207
677 42825
677 225502
677 26706
677 220026
677 222459
677 265364
677 303474
677 182864
677 226349
677 378022
677 67352
677 62485
677 403212
677 394943
677 146101
677 318926
677 98836
677 66458
677 130893
677 245136
677 395620
677 177098
677 94269
677 23963
677 133209
677 371204
677 91999
677 74155
677 263643
677 443326
677 57079
677 180308
677 76141
677 263710
677 208205
677 134300
677 98616
677 210156
677 29650
677 64245
677 221646
677 421985
677 351444
677 135278
677 435782
677 17926
677 334200
677 234537
677 62456
677 256358
677 103786
677 141951
677 216283
677 105385
677 159857
677 15521
677 159762
677 117416
677 211148
677 163272
677 223211
677 27247
677 368724
677 445116
677 46265
677 425571
677 363292
677 417027
677 37115
677 38338
677 434823
677 19336
677 235502
677 444613
677 371355
677 432111
677 59074
677 205767
677 51640
677 358551
677 82948
677 300993
677 180262
677 205923
677 236283
677 218011
677 195549
677 42569
677 36675
677 235978
677 454613
677 170248
677 167376
677 268051
677 384462
677 202609
677 108134
677 211207
677 220118
677 105728
677 175713
677 213674
677 153780
677 29496
677 155507
677 140244
677 193649
677 152978
677 94299
677 235010
677 136841
677 144135
677 244575
677 54755
677 70011
677 35389
677 33833
677 313396
677 37288
677 196658
677 244663
677 43553
677 242856
677 183801
677 230165
677 387341
677 56304
677 227066
677 84440
677 304766
677 162437
677 397580
677 425380
677 24810
677 216794
677 199348
677 251026
677 3134
677 424575
677 425348
677 381240
677 230658
677 164312
677 124066
677 256709
677 352734
677 45337
677 437825
677 383439
677 109444
677 159808
677 30904
677 103441
677 339710
677 347496
677 411213
677 201706
677 332905
677 219446
677 404460
677 99018
677 377616
677 90235
677 214447
677 236608
677 135830
677 33917
677 180089
677 252494
677 442193
677 377525
677 51133
677 21369
677 210124
677 40004
677 67948
677 287876
677 62458
677 314902
677 209134
677 136791
677 446886
677 284113
677 377672
677 429587
677 222829
677 195587
677 401154
677 268777
677 160801
677 271238
677 37879
677 370744
677 311400
677 181597
677 242299
677 76567
677 454280
677 247641
677 420929
677 88361
677 338188
677 439610
677 247776
677 124594
677 57939
677 22497
677 437956
677 10639
677 126002
677 29619
677 292698
677 154210
677 407192
677 280895
677 219870
677 358298
677 13261
677 188400
677 327938
677 224803
677 332810
677 131267
677 79633
677 391840
677 36634
677 297005
677 121409
677 425800
677 145346
677 127837
677 164600
677 219696
677 101220
677 30276
677 229380
677 423038
677 224539
677 21165
677 65183
677 238247
677 346622
677 281726
677 42970
677 134128
677 65887
677 400049
677 100586
677 78036
677 375569
677 63419
677 308212
677 51638
677 43291
677 65819
677 274144
677 442836
677 293490
677 223842
677 212115
677 71049
677 259029
677 297724
677 247194
677 88647
677 125367
677 411473
677 263862
677 447197
677 71177
677 151383
677 169231
677 43440
677 105090
677 295029
677 235455
677 154149
677 172247
677 142625
677 198859
677 402265
677 3125
677 225090
677 374047
677 306545
677 19520
677 332869
677 345560
677 320206
677 245472
677 401545
677 451549
677 243357
677 230752
677 220557
677 414478
677 387128
677 36485
677 259849
677 322795
677 177392
677 220102
677 252675
677 138665
677 254614
677 287299
677 280582
677 137587
677 173809
677 51806
677 452589
677 284537
677 125279
677 25359
677 225504
677 213547
677 359147
677 202936
677 360533
677 194614
677 18020
677 45639
677 214026
677 144329
677 140900
677 143617
677 232139
677 389072
677 144131
677 15773
677 209903
677 12736
677 392139
677 136111
677 329022
677 58807
677 154303
677 91897
677 92796
677 384764
677 105945
677 220141
677 5086
677 270844
677 99869
677 14790
677 191123
677 14503
677 120225
677 225675
677 93008
677 180218
677 51205
677 149538
677 431196
677 304492
677 261056
677 262023
677 33970
677 181372
677 156373
677 190023
677 215844
677 379067
677 388413
677 377096
677 429556
677 296204
677 288368
677 144025
677 103988
677 195528
677 21323
677 117438
677 44760
677 142150
677 111388
677 196883
677 211614
677 376657
677 31407
677 215401
677 451321
677 259055
677 399207
677 232639
677 455448
677 222457
677 234560
677 294399
677 34437
677 235296
677 32733
677 155605
677 6427
677 239355
677 440630
677 187282
677 174999
677 313274
677 323804
677 148439
677 271778
677 137458
677 216100
677 136859
677 134037
677 330250
677 26857
677 91862
677 296266
677 259542
677 429973
677 188740
677 326081
677 422845
677 407994
677 206559
677 6044
677 412954
677 285443
677 20457
677 226861
677 134107
677 219321
677 111205
677 223890
677 155136
677 53854
677 143672
677 272666
677 394859
677 186023
677 297552
677 62688
677 202257
677 231292
677 441641
677 13042
677 455030
677 402827
677 40015
677 379298
677 328834
677 159867
677 223189
677 184780
677 177730
677 386458
677 64589
677 284818
677 172448
677 245547
677 133393
677 76918
677 313570
677 446832
677 37443
677 161619
677 137017
677 61693
677 29477
677 113390
677 424737
677 246020
677 210890
677 230149
677 76415
677 197815
677 219091
677 147730
677 202815
677 99293
677 261396
677 229353
677 142269
677 239229
677 120952
677 201973
677 409750
677 425389
677 24887
677 118642
677 216635
677 342589
677 298866
677 411279
677 157236
677 156848
677 331230
677 320676
677 190358
677 13133
677 376624
677 164798
677 143250
677 438561
677 430661
677 308199
677 216472
677 395492
677 186599
677 116792
677 288863
677 366004
677 210419
677 237485
677 179605
677 168935
677 322135
677 3654
677 335073
677 381497
677 216879
677 226140
677 148354
677 133897
677 128320
677 392390
677 403402
677 210902
677 196468
677 203985
677 94452
677 339192
677 66062
677 247749
677 26223
677 195543
677 267477
677 103416
677 266723
677 40169
677 292537
677 407197
677 4295
677 379248
677 271678
677 84797
677 155770
677 187231
677 264657
677 203789
677 227681
677 368677
677 81922
677 213892
677 137112
677 22202
677 105921
677 47596
677 351742
677 380739
677 69936
677 92965
677 200514
677 44238
677 396609
677 165361
677 20780
677 232775
677 231275
677 248131
677 226510
677 408057
677 304389
677 217391
677 218764
677 276433
677 240536
677 218531
677 229677
677 432579
677 41450
677 229194
677 254604
677 154295
677 203281
677 221360
677 413737
677 95122
677 269039
677 25918
677 267415
677 15659
677 91187
677 225961
677 98530
677 314254
677 201103
677 88507
677 40749
677 65572
677 18517
677 391704
677 163321
677 299086
677 31415
677 347600
677 406104
677 98992
677 100571
677 292450
677 167396
677 264489
677 311860
677 215379
677 255397
677 205890
677 285192
677 419101
677 218587
677 311360
677 224130
677 17657
677 106334
677 216882
677 44473
677 122290
677 438616
677 443281
677 97516
677 8126
677 391399
677 75113
677 164996
677 221746
677 427417
677 21646
677 13143
677 365703
677 50907
677 380080
677 335532
677 443931
677 102972
677 242614
677 210613
677 84311
677 426890
677 269116
677 259237
677 25461
677 74905
677 388064
677 218871
677 65852
677 62786
677 264236
677 409320
677 188370
677 15376
677 159611
677 387121
677 64525
677 218398
677 35646
677 405519
677 221693
677 223066
677 9193
677 9772
677 415282
677 123714
677 417298
677 175736
677 231607
677 31388
677 329645
677 396651
677 169840
677 310721
677 45183
677 280007
677 380625
677 243640
677 201236
677 209157
677 228227
677 213235
677 93999
677 338851
677 11911
677 244632
677 39625
677 219833
677 222941
677 351935
677 220299
677 50207
677 413924
677 139082
677 210896
677 361935
677 97457
677 425810
677 428829
677 405615
677 167461
677 432465
677 18343
677 391543
677 89542
677 211969
677 327857
677 294062
677 212159
677 352021
677 335794
677 375671
677 140433
677 354049
677 100434
677 10300
677 94461
677 224046
677 87619
677 92318
677 116311
677 98288
677 226936
677 214901
677 69876
677 111545
677 148069
677 249095
677 226959
677 278228
677 79629
677 217209
677 346548
677 25228
677 409318
677 232943
677 282426
677 303777
677 240728
677 218218
677 387504
677 225480
677 216642
677 162766
677 23950
677 154228
677 12883
677 391722
677 153370
677 78054
677 145134
677 6435
677 346495
677 6940
677 272136
677 260800
677 90185
677 87919
677 41791
677 41705
677 202752
677 259751
677 364988
677 328328
677 301067
677 314478
677 423117
677 202434
677 42947
677 167143
677 1270
677 296639
677 145413
677 317817
677 84156
677 432635
677 104215
677 345640
677 272053
677 143908
677 103555
677 366131
677 96015
677 36378
677 17949
677 346621
677 82782
677 86125
677 236452
677 250493
677 176052
677 33977
677 159620
677 205458
677 13955
677 30069
677 442963
677 47462
677 156747
677 424043
677 229516
677 241693
677 27108
677 141481
677 25046
677 275338
677 388331
677 77086
677 78922
677 404683
677 204809
677 436222
677 181985
677 285668
677 287772
677 215782
677 53575
677 48267
677 55087
677 35925
677 226650
677 277482
677 11716
677 96796
677 192217
677 44841
677 322327
677 114481
677 369946
677 88670
677 349770
677 26234
677 285433
677 111433
677 245370
677 224092
677 219955
677 381414
677 399316
677 441446
677 39889
677 397279
677 292587
677 73737
677 39470
677 100420
677 162099
677 211919
677 314154
677 408657
677 232462
677 453726
677 132732
677 336285
677 383450
677 419144
677 434930
677 95526
677 122372
677 283970
678 146421
678 23411
262829 101966
262829 97098
262829 273475
689 272666
689 240809
689 218132
689 163656
689 279355
689 144721
689 381369
689 120383
689 453326
689 327456
689 196094
689 199261
689 322820
689 158058
689 290843
689 134457
689 154685
689 219288
689 164993
689 39439
689 359157
689 199179
689 41177
689 87457
689 352365
689 423893
689 239717
689 175298
689 80998
689 85599
689 34155
689 174434
689 301684
689 216754
689 141414
689 396699
689 3218
689 12019
689 201213
689 48267
689 96059
689 276947
689 382588
689 449503
689 211401
689 384402
689 217167
689 415924
689 333678
689 214213
689 82628
689 49571
689 235912
689 169015
689 280379
689 205837
689 285716
689 45858
689 212707
689 40877
689 176682
689 4288
689 42544
689 412003
689 327632
689 129724
689 261504
689 11714
689 217574
689 118088
689 103589
689 108873
689 148806
689 88910
689 324028
689 38835
689 121327
699 68884
699 198441
699 98455
699 294748
702 174859
702 175051
702 50405
702 82091
702 166404
702 28375
702 159066
702 189576
702 98558
702 113782
702 117189
702 210640
702 24816
702 281242
702 46267
702 148830
702 219536
702 109447
702 76499
702 121395
702 61944
702 82953
702 165750
702 45248
702 278490
702 32420
702 330285
702 189048
702 177661
702 13046
702 195699
702 240927
702 295199
702 48791
702 158216
702 225845
702 23355
702 136402
702 51638
702 188822
702 41355
702 158510
702 202936
703 382951
703 35229
703 170225
703 222757
703 260134
703 121486
703 435055
703 231397
703 48039
703 64168
262856 7627
714 93905
714 167558
714 2320
715 130678
715 338847
715 386885
715 55715
715 146565
715 293063
715 339526
715 1711
715 250002
715 389318
715 25536
715 161737
715 81150
715 37624
715 134319
715 149256
715 302268
715 1698
715 271479
715 125257
715 109065
715 3125
715 124924
715 143615
715 133684
715 334930
715 126070
715 412556
715 169042
715 373170
715 413586
718 122725
718 68637
718 75422
718 99949
718 15351
718 995
718 116290
718 31125
718 363092
718 104168
718 18461
718 77284
718 130618
718 193059
721 78941
722 1254
262866 116632
262869 6929
727 451642
727 214782
727 57170
262872 16460
262874 16313
731 1577
734 94073
737 11706
740 25586
740 288029
743 76337
748 52820
752 199261
752 37185
752 105491
752 80744
752 34833
752 1387
752 187562
752 6085
752 364875
752 106590
752 68270
752 62268
752 36771
752 3125
752 6615
752 34396
752 199727
752 132142
752 48039
752 12989
752 54185
752 407778
752 390161
752 23204
752 198975
752 335421
752 5922
752 37399
752 199420
752 64949
752 197666
752 5052
752 61460
752 72202
752 368641
752 218271
752 129799
752 38703
752 96394
752 212816
752 258955
752 44526
752 37005
752 95386
752 158286
759 390024
759 362746
759 325182
759 184552
759 60269
759 420016
759 363050
759 438239
759 77955
759 228063
759 413792
759 118380
759 335828
759 106679
759 433917
759 56762
759 124170
759 113614
759 155623
759 358065
759 107135
759 73893
759 346182
759 131428
759 173834
759 439128
759 409614
759 108134
759 378153
759 166012
759 117780
759 419526
759 176448
759 247435
759 351170
759 17384
759 361750
759 357839
759 278316
759 139722
759 396493
759 174627
759 11642
759 184405
759 33883
759 129269
759 276822
759 73937
759 37418
759 391839
759 183026
759 155840
759 16759
759 323521
759 142457
759 46523
759 363392
759 177101
759 339257
759 385859
759 453280
759 173408
759 325321
759 167085
759 48031
759 166448
759 171997
759 146887
759 155831
759 311422
759 449192
759 1761
759 111153
759 50082
759 190770
759 204536
759 428926
759 188798
759 46608
759 258549
759 64007
759 360953
759 129243
759 263547
759 261569
759 357938
759 191049
759 424549
759 171961
759 196544
759 9571
759 416922
759 173649
759 129210
762 179258
762 405904
762 233812
762 245084
762 261259
762 165496
762 136856
762 251903
762 236661
762 380700
762 182253
762 434386
762 119365
762 180411
762 360217
762 288158
762 67594
762 141451
762 394506
762 419060
762 383540
762 455738
762 235994
762 189928
762 99565
762 223612
762 191108
762 455419
762 170114
762 184792
762 390105
762 115677
765 291757
765 20840
765 13600
765 208407
765 360651
765 14457
765 132685
765 447013
765 162475
765 62022
765 100147
765 25597
765 239071
765 146161
765 164703
765 269908
765 1754
765 240222
765 337052
765 11539
765 453012
765 380735
765 276480
765 231720
765 147437
765 403870
765 85395
765 143266
765 170842
765 272377
765 19136
765 261512
765 210988
765 1255
765 250595
765 425164
765 103476
765 98980
765 237022
765 14004
765 315222
765 132855
765 8141
765 195586
765 358916
765 289466
765 72317
765 245232
765 192884
765 448981
765 216981
765 229054
765 201570
765 416450
765 106305
765 50394
765 56946
765 110304
765 442070
765 425833
765 121445
765 143268
765 92793
765 29718
765 41078
765 129796
765 188996
765 65106
765 29279
765 43171
765 125950
765 28115
765 217619
765 397820
771 784
773 22470
773 143541
773 173623
773 143515
773 191637
773 335304
773 177431
773 100420
773 167861
781 429824
781 380906
781 415625
781 287407
781 38958
781 161903
781 59292
781 30049
781 108775
781 171115
781 373201
784 1988
262932 294416
262933 73973
262933 13660
795 25819
796 15000
799 18256
799 137458
799 108134
799 135890
799 2630
806 195512
806 216397
806 394553
806 316032
806 56380
806 246085
806 182087
806 237488
806 412033
806 257182
806 253293
806 249155
815 18934
815 177516
822 189648
822 130334
822 54180
822 47746
822 126385
822 242444
827 9953
829 5245
262975 88864
262998 68278
855 160931
855 67638
855 56546
855 150477
856 37753
858 113708
263003 206896
865 45355
865 42216
865 113689
865 405239
865 20759
865 14353
865 45359
263011 234461
875 278220
875 48976
875 422538
875 18767
875 240001
875 351019
875 101981
875 73699
875 246624
875 227559
875 166179
875 191422
875 97385
875 108347
875 195132
875 33570
875 208981
875 112361
263022 14615
879 295783
879 393440
879 432278
879 3948
879 117000
880 178182
885 30136
885 136965
885 98239
885 120697
885 136247
885 90515
885 186581
885 40059
885 53506
885 328386
885 291139
885 188432
885 349938
885 177715
885 255791
885 411233
885 264230
885 2940
885 304684
885 355428
885 147687
885 189451
885 385110
263031 359960
263055 7698
263056 26694
263058 52474
919 28045
919 52445
919 13184
919 16134
919 11801
919 78560
919 416902
919 23616
920 381305
920 39999
920 278883
920 371441
920 55423
920 18119
920 8342
920 5461
920 34452
920 32643
920 8292
920 437980
920 274121
920 15841
920 190413
920 113608
920 83093
920 119269
920 129542
920 364096
920 43168
920 141679
920 3922
920 268151
920 178719
920 6725
920 90567
920 10442
920 167999
920 221342
920 5810
263065 20920
926 1988
928 11620
263075 29225
941 50901
941 126139
942 441221
263099 75365
263099 138327
957 20600
957 206247
957 300276
957 393757
957 98372
957 47548
957 3922
957 206706
957 93076
957 286384
957 83052
957 180668
957 171751
957 312036
957 55575
957 326228
957 140055
957 417098
957 270784
957 236158
957 420109
957 50204
957 342630
957 12558
957 191265
957 7160
957 453484
957 203555
957 64949
957 259105
957 140496
957 186674
957 222248
957 68376
957 10136
957 28963
957 7188
957 272447
957 169287
957 4862
957 384215
957 241822
957 7203
957 214440
957 360502
957 144488
957 275517
957 419661
957 20612
957 302793
957 208973
957 276037
957 83708
957 228582
957 153696
957 259116
957 95958
957 134039
957 206998
957 224174
957 403516
957 148208
957 247424
957 277661
957 247172
957 225220
957 136665
957 78716
957 154685
957 61683
957 249173
957 249782
957 22312
957 217545
957 389104
957 71149
957 162509
957 191420
957 81744
957 340832
957 388332
957 25918
957 287713
957 195510
957 149523
957 93911
957 152014
957 114469
957 43435
957 154908
957 58492
957 138930
957 215436
957 38281
957 70296
957 176232
956 7274
965 200164
965 410246
965 138387
965 234016
965 362218
965 84198
965 435938
965 282671
965 267829
965 95953
965 97367
965 305251
965 228645
965 228765
965 138021
965 422163
965 244286
965 221921
965 182236
965 205228
965 273766
965 399707
965 380203
965 229982
965 174490
965 214021
965 173176
965 289395
965 200230
965 172713
965 167820
965 387026
965 242649
965 66763
965 314830
965 223811
965 388432
965 55700
965 48039
965 172067
965 263777
971 42169
971 127937
975 69585
980 221547
980 32278
980 14968
980 336595
980 138920
980 23563
980 71408
980 20587
980 82629
980 85578
980 77794
980 232934
980 149888
980 371109
980 185446
980 173768
980 146711
980 232379
980 160651
980 356612
980 135721
980 37736
980 352421
980 172287
980 37428
980 15210
980 187762
980 178240
980 92340
980 71672
980 60283
980 104173
980 132186
980 258852
980 212193
980 280756
980 270106
980 154384
980 134685
980 98234
980 65518
980 231169
980 85131
980 239340
980 293058
980 28275
980 42425
980 429514
980 214966
980 147715
980 423564
980 294555
980 11775
980 369619
980 196088
980 70830
980 199562
980 220505
980 157238
980 174069
980 377197
980 44073
980 111957
980 149568
980 132429
980 211163
980 121434
980 238800
980 218824
980 371992
980 54274
980 176683
980 281242
980 182392
980 413847
980 148077
980 135809
980 108610
980 236699
980 88693
980 80989
980 143609
980 337261
980 252674
980 232634
980 158746
980 90566
980 148228
980 106355
980 414837
980 383765
980 346371
980 410364
980 205387
980 259146
980 237107
980 238072
980 147020
980 152174
980 207633
980 215486
980 156785
980 229541
980 70353
980 223045
980 346908
980 175434
980 201863
980 129465
980 399153
980 10698
980 135062
980 184963
980 76496
980 26554
980 227648
981 328560
981 257424
981 364824
981 401760
981 106555
981 228800
981 245367
981 304393
981 158136
981 145096
981 397870
981 325944
981 112469
981 83939
981 449072
981 280852
981 369895
981 120215
981 419647
981 362581
981 416240
981 52040
981 330651
981 428593
981 401467
981 381947
981 198873
981 112454
981 302729
981 377292
981 367738
981 337725
981 298789
981 342896
981 191382
981 160158
981 411341
981 387023
981 415526
981 315770
981 64080
981 328559
981 125919
981 372087
981 426902
981 256274
981 309295
981 316346
981 431417
981 350588
981 379611
981 332113
981 375438
981 395003
981 347111
981 452534
981 346645
981 406329
981 58379
981 38494
981 330039
981 239846
981 66967
981 168569
981 229371
981 151762
981 82171
981 247099
981 188333
981 381350
981 190270
981 413602
981 77894
981 52225
981 381854
981 291843
981 348084
981 414380
981 204146
981 91452
981 49606
981 340594
981 345113
981 278878
986 15407
987 141452
263131 5193
991 152843
991 237314
991 24669
991 73228
991 32060
991 154468
992 83298
992 145563
992 136399
992 179574
992 11060
992 17835
992 144733
992 182635
992 143926
992 151397
992 239036
992 229305
992 171927
992 273295
992 227663
992 229710
994 66637
995 73303
995 5714
995 102969
995 415708
995 33954
995 48039
995 253444
995 7812
995 2423
995 40064
995 15770
995 216415
995 146039
995 16676
995 280932
995 319822
995 123416
995 11038
995 153431
995 3680
995 19044
998 203107
998 32944
999 156031
1003 88041
263153 1988
263162 22292
1022 26821
1022 29189
1022 1988
263167 62943
1025 47536
263169 62542
1030 1877
1037 326979
1037 55501
1037 184052
1037 4480
1037 22651
1037 29126
1037 6316
1037 434683
1037 164751
1037 227059
1037 10825
1037 154158
1037 16375
1037 126224
1037 420731
1037 158494
1037 320866
1037 1667
1037 64949
1037 18460
1037 55807
1037 57645
1037 42334
1037 256881
1037 29644
1037 176743
1037 306808
1037 24184
1037 166725
1037 11468
1037 94528
1037 180937
1037 115764
1037 76360
1037 415170
1037 146502
1037 20154
1037 105754
1037 91683
1037 112083
1037 73679
1037 73043
1037 32013
1037 250414
1037 183542
1037 39868
1037 2486
1037 54653
1037 37879
1037 345133
1037 1270
1037 184989
1043 43876
263189 1988
1050 11714
1055 6347
263202 122469
263206 68278
263213 417723
1079 35933
263227 47759
1100 7274
263246 36371
1119 1988
1125 61944
1128 71277
263276 79573
1138 277974
1138 120164
1138 52112
1138 21293
1138 213384
1138 88935
1138 115844
1138 49859
263289 456463
1149 10964
263319 2287
263322 1553
1182 24915
1205 27671
1205 121395
1205 42663
1205 405046
1205 41838
1205 274418
1205 137933
1205 382502
1205 192170
1205 363952
1205 17562
1205 191786
1205 87833
263352 402448
263355 54863
263358 26551
1220 27959
1221 207722
1228 1270
1230 4452
1230 15179
1230 3717
1230 45077
1232 74017
1233 2212
263379 37341
263383 37341
1243 255551
1248 155089
1248 15842
1248 227674
1248 15382
1251 264517
1251 146023
1251 32703
1251 8614
1251 162632
1251 275022
1251 413736
1252 24692
1252 7459
1252 51916
1254 105888
1254 182833
1254 23557
1254 50774
1255 6239
1255 7114
1255 7196
1270 6530
1270 177333
1270 289845
1270 79632
1270 12972
1270 148867
1270 453806
1270 4463
1270 180388
1270 153039
1270 89032
1270 16480
1270 278134
1270 7459
1270 348838
1270 32520
1270 242915
1270 10789
1270 61687
1270 4452
1270 10639
1270 214455
1270 357739
1270 12538
1270 161599
1270 218394
1270 17773
1270 223243
1270 26028
1270 43473
263418 269562
1286 206182
263434 62943
1291 230474
1291 366197
1291 151352
1291 71531
1291 180496
263435 31450
1293 430476
1293 290038
1294 265209
263442 137483
263442 14454
1301 141359
1301 2494
263454 153514
1320 2320
1321 99393
1321 23284
1321 82861
1324 14454
1322 75323
1322 27571
1322 12049
1322 134799
1322 173090
1322 187764
1322 248057
1322 82610
1322 96263
1322 11720
1322 95359
1322 9310
1322 141321
1322 452166
1322 55664
1322 81591
1322 25123
1322 86423
1322 55258
1322 2970
1322 25008
1322 4246
1322 221342
1322 15728
1322 81590
1322 54180
1322 34170
1322 424940
1322 37879
1322 90010
263468 3232
1329 64451
1329 44763
263476 14437
1334 1390
1344 78323
1345 79598
263492 16323
1352 122488
1357 146594
1357 180606
263505 324060
263505 323276
263505 382848
263505 455775
263505 144626
263505 444896
263505 358504
263505 415147
263505 282958
263505 373047
263505 350877
263505 272796
263505 136343
263505 136305
263505 455095
263505 189799
263505 346546
263505 242008
263505 273689
263505 192347
263505 433292
263505 376154
263505 358063
263505 242007
263505 192351
263505 164897
263505 315975
263505 136299
263505 74547
263505 272792
263505 304017
263505 197682
263505 271527
263505 326198
263505 294750
263505 393204
263505 254319
263505 301299
263505 432898
263505 136375
263505 303763
263505 218121
263505 136317
263505 172919
263505 226281
263505 197070
263505 390952
263505 297504
263505 292417
263505 387381
263505 63523
263505 63005
1372 1877
1387 27738
1390 135974
1390 12996
1390 233946
1390 26894
1390 18529
1390 3945
1390 14085
1390 27907
1390 5090
1390 38310
1390 11089
1390 9696
1390 68762
1394 88999
263542 101717
1403 52232
1405 87335
263554 3979
263557 14454
263565 16968
263567 77656
1423 178893
1423 148613
1431 64524
1431 132516
1431 281242
1431 348184
1431 374843
1431 368413
1431 25618
1431 215071
1431 47441
1431 70584
1431 142567
1431 103398
1431 113211
263576 58028
263579 19913
263585 56698
1445 13651
263594 56698
1456 147636
1459 405301
1459 89689
1459 42680
1459 96216
1459 59484
1459 32183
1459 68052
1459 236786
1459 71943
1459 13207
1459 12791
1459 30653
1459 83412
1459 106751
1459 434060
1459 105931
1459 16671
1459 371469
1459 77990
1459 113074
1459 156213
1459 161811
1459 229102
1459 150807
1459 448765
1459 6120
1459 23285
1459 60983
1459 126031
263604 40279
1462 10578
1462 66306
1462 112004
263603 56698
263610 60021
263610 30230
263618 101626
263620 89578
1483 260014
1483 3808
1484 10968
263630 14725
1492 16038
263643 9964
263650 86071
1508 13920
263671 68278
263672 29065
1531 46106
1531 132582
1531 14381
1531 191691
1542 386244
1542 112232
1542 190368
1542 144721
1542 347140
1542 38796
1542 177516
1542 185456
1542 77821
1542 200744
1542 128231
1542 178734
1542 287275
1542 142616
1542 133902
1542 15709
1542 183558
1542 22178
1542 17479
1542 160165
1542 123063
1542 7172
1542 108846
1542 103926
1542 13171
1542 145460
1542 7459
1542 73917
1542 126173
1546 88555
1546 446787
1546 286307
1546 47069
1546 329401
1546 451078
1546 418109
1546 403736
1546 24694
1546 216056
1546 93039
1546 403737
1546 396384
1546 392219
1546 136111
1546 395928
1546 29818
1553 341116
1553 168330
1553 193643
1553 345484
1553 421934
1553 343781
1553 150260
1553 298423
1553 53913
1553 153496
1553 197768
1553 35973
1553 206933
1553 166541
1553 335766
1553 307225
1553 305847
1553 154966
1553 183236
1553 284444
1553 325984
1553 432017
1553 270721
1553 223782
1553 55805
1553 39096
1553 298533
1553 330948
1553 242906
1553 300869
1553 299525
1553 130555
1553 265417
1553 320960
1553 367873
1553 345486
1553 116914
1553 270720
1553 358453
1553 320584
1553 195455
1553 9169
1553 443264
1553 270790
1553 9256
1553 121477
1553 5517
1553 278385
1553 275179
1553 6682
1553 310427
1553 328943
1553 169190
1553 99881
1553 273316
1553 158458
1553 316791
1553 280540
1553 3066
1553 35630
1553 85187
1553 97851
1553 378226
1553 452374
1553 133103
1553 226915
1553 233526
1553 195275
1553 394952
1553 192298
1553 292736
1553 360607
1553 196331
263699 3393
263705 54081
263707 424920
263708 179050
1564 109966
1564 426545
1564 104092
1568 5207
1568 217076
263714 79653
263716 88999
1571 14454
1576 27864
1576 11230
1577 202724
1577 47401
1577 164563
1577 9129
1586 90430
1586 272812
263736 95905
263739 68278
263763 60827
1625 41674
1637 6868
1637 40172
263786 17902
1644 11714
1647 181766
1647 243900
1647 187470
1647 142438
1647 98647
1647 348205
1647 435452
1647 109245
1647 209870
1647 250148
1647 257722
1647 148951
1647 173667
1647 450561
1647 428222
1647 197670
1647 444206
1647 449984
1647 22431
1647 103966
1647 456181
1647 211474
1647 406660
1647 132223
1647 238349
1647 350943
1647 98061
1647 216310
1647 394686
1647 10076
1647 91266
263798 14454
1662 7274
1665 240000
1665 43353
1665 81098
1665 56939
1665 60180
1665 78449
1665 1977
1665 63816
1665 108832
1672 9964
1677 174900
1681 36633
1681 98263
1681 16760
1681 66594
1681 24407
1681 162108
1686 2633
1696 1728
1696 1698
263849 71783
1714 34719
1716 3997
1718 3319
1720 105090
1720 366520
1720 88209
1720 353395
1720 2308
263871 55965
263873 27744
263885 216338
263886 34963
1742 3319
263888 216338
1747 94422
1747 234020
1747 285250
263894 1988
263894 42927
1762 389346
1762 131431
1762 170722
263914 71141
1774 2696
263919 188408
263925 12265
1791 246461
1795 88040
1795 191923
1795 245888
1795 255319
1795 192157
1795 260630
1795 151385
263950 26694
1808 352805
1808 150541
1808 401639
263954 36371
263964 14454
263966 14454
1831 122686
1831 18958
1833 35519
263978 7698
1836 11026
263981 165867
1840 7459
263986 4259
263986 5245
263986 5193
263987 67785
263988 122469
1847 14960
1844 47396
1844 51415
1844 38313
1852 33616
1852 153265
1852 110945
1852 181611
1852 133393
1852 111955
1852 455846
1852 271546
1852 46265
1852 74494
1852 171870
1852 203837
1852 223584
1852 251433
1852 14415
1852 151537
1852 360853
1852 422762
1852 198722
1852 88690
1852 306722
1852 199049
1852 310151
1852 438983
1852 269941
1852 437649
1852 272019
1852 454563
1852 185247
1852 364088
1852 117604
1852 295879
1852 229348
1852 164651
1852 405966
1852 412404
1852 287549
1852 158696
1852 256566
1852 364875
1852 387936
1852 195536
1852 339046
1852 185188
1852 350231
1852 272461
1852 126086
1852 433503
1852 351698
1852 327676
1852 322327
1852 193708
1852 241432
1852 321180
1852 433946
1852 148844
1852 297679
1852 110374
1852 131682
1852 194077
1852 414032
1852 431855
1852 158315
1852 202609
1852 201461
1852 86358
1852 162540
1852 242937
1852 60662
1852 89403
1852 339160
1852 28498
1852 79931
1852 233833
1852 384779
1852 330628
1852 29252
1852 132672
1852 46130
1852 237840
1852 328938
1852 418923
1852 229447
1852 380136
1852 41768
1852 162713
1852 169652
1852 388331
1852 67215
1852 206703
1852 206480
1852 446620
1852 171850
1852 442813
1852 259699
1852 296266
1852 441749
1852 181968
1852 208875
1852 8624
1852 220922
1852 196468
1852 168933
1852 272509
1852 253072
1852 400620
1852 19335
1852 208690
1852 181923
1852 273713
1852 210602
1852 400686
1852 397079
1852 281003
1852 63000
1852 54928
1852 255249
1852 329854
1852 316207
1852 13943
1852 300137
1852 51927
1852 403516
1852 292597
1852 230603
1852 269224
1852 442366
1852 418109
1852 235257
1852 151416
1852 358920
1852 100622
1852 363222
1852 244366
1852 393474
1852 32558
1852 438471
1852 283558
1852 53061
1852 2145
1852 343905
1852 132404
1852 137587
1852 99393
1852 349773
1852 350052
1852 428755
1852 289105
1852 287356
1852 172262
1852 34893
1852 148975
1852 341896
1852 297252
1852 424754
1852 194381
1852 59767
1852 383474
1852 328951
1852 423184
1852 207710
1852 378195
1852 95999
1852 239694
1852 168560
1852 250631
1852 21054
1852 351516
1852 178928
1852 71947
1859 9964
264019 283215
1876 8511
1876 112328
1877 37211
1877 174961
1877 400205
1877 12170
1877 276191
1877 141768
1877 3719
1877 102038
1877 392763
1877 33954
1877 145385
1877 7376
1877 5043
1877 46934
1877 27921
1877 54091
1877 247827
1877 92577
1877 93019
1877 165353
1877 291757
1877 40101
1877 174094
1877 98101
1877 51966
1877 7992
1877 66944
1877 68570
1877 52678
1877 65500
1877 12146
1877 401763
1877 320083
1877 76395
1877 68599
1877 15237
1877 98099
1877 189722
1877 78376
1877 82461
1877 444037
1877 12045
1877 25945
1877 339407
1877 55700
1877 373145
1877 18611
1877 15657
264021 157539
1884 393942
1884 276204
1884 187920
1884 153989
1884 359714
1884 151961
1884 49615
1892 46715
1893 418835
264041 11891
1897 281584
1897 393673
1897 274356
1897 238773
1897 346754
1897 407692
1897 136721
1897 155047
1897 237749
1897 438447
1897 56527
1897 372742
1897 223205
1897 156036
1897 213107
1897 154733
1897 50772
1897 195687
1897 415728
1897 237833
1897 386833
1897 184311
1897 279478
1897 373346
1897 410680
1897 139502
1897 348860
1897 432218
1897 393237
1897 231250
1897 405906
1897 422228
1897 272184
1897 163469
1897 340598
1897 224663
1897 142004
1897 91687
1897 400522
1897 274431
1897 167782
1897 404425
264065 397369
264067 14454
264069 93592
1927 34190
1941 11999
1941 255849
1941 216822
1941 455626
1942 81105
1957 5193
1964 130280
264108 30230
264108 37545
1970 6406
1982 6808
1982 53765
1982 79477
1988 393932
1988 427457
1988 280334
1988 401504
1988 215055
1988 333000
1988 88691
1988 259849
1988 58405
1988 442891
1988 233541
1988 90377
1988 108134
1988 455304
1988 222771
1988 28375
1988 291285
1988 15801
1988 45395
1988 285719
1988 203002
1988 31107
1988 329401
1988 123417
1988 210613
1988 227951
1988 136841
1988 217229
1988 215982
1988 376557
1988 190249
1988 163654
1988 331115
1988 201635
1988 369334
1988 441639
1988 4779
1988 204358
1988 189652
1988 195847
1988 149653
1988 67918
1988 178400
1988 242236
1988 313600
1988 296413
1988 329350
1988 266424
1988 209010
1988 62907
1988 111205
1988 64124
1988 145076
1988 157320
1988 217015
1988 25142
1988 433503
1988 314681
1988 190099
1988 392417
1988 150677
1988 328975
1988 67504
1988 192208
1988 430283
1988 152464
1988 75537
1988 112199
1988 267317
1988 415806
1988 189661
1988 197097
1988 220955
1988 163003
1988 9173
1988 276378
1988 13512
1988 276916
1988 275236
1988 386711
1988 30597
1988 227581
1988 420787
1988 195128
1988 297904
1988 456177
1988 148374
1988 195169
1988 181273
1988 214762
1988 335883
1988 21282
1988 237180
1988 103555
1988 145171
1988 6019
1988 192587
1988 313806
1988 141155
1988 375734
1988 451321
1988 125894
1988 271968
1988 214740
1988 51715
1988 23095
1988 94708
1988 204409
1988 11588
1988 327938
1988 199798
1988 141674
1988 334930
1988 245552
1988 261259
1988 91872
1988 378013
1988 235354
1988 76567
1988 119468
1988 12900
1988 20046
1988 185318
1988 341299
1988 190358
1988 111388
1988 51557
1988 105731
1988 151664
1988 113786
1988 267467
1988 79964
1988 208509
1988 77816
1988 79191
1988 20415
1988 170563
1988 29457
1988 425128
1988 3287
1988 163993
1988 358552
1988 39853
1988 204237
1988 130544
1988 118501
1988 280664
1988 245083
1988 184778
1988 107578
1988 227585
1988 150980
1988 166573
1988 441641
1988 194171
1988 51181
1988 122673
1988 286565
1988 365642
1988 142172
1988 174947
1988 179788
1988 338079
1988 187324
1988 162950
1988 220495
1988 345654
1988 214887
1988 189312
1988 172972
1988 421467
1988 162607
1988 128241
1988 97906
1988 57541
1988 32438
1988 203562
1988 241662
1988 218971
1988 223498
1988 398681
1988 250343
1988 241391
1988 98596
1988 221958
1988 321769
1988 46056
1988 204932
1988 257741
1988 454029
1988 130895
1988 299285
1988 386740
1988 429641
1988 142304
1988 90850
1988 188521
1988 375807
1988 166124
1988 453639
1988 48540
1988 322327
1988 24902
1988 373863
1988 126816
1988 431078
1988 31157
1988 199973
1988 259261
1988 221714
1988 35912
1988 279281
1988 99730
1988 25049
1988 192341
1988 201107
1988 80314
1988 33814
1988 214358
1988 417298
1988 393423
1988 26256
1988 11984
1988 65984
1988 252415
1988 437017
1988 100351
1988 174859
1988 99293
1988 10755
1988 5721
1988 41274
1988 301849
1988 211001
1988 113523
1988 372897
1988 9065
1988 44675
1988 193188
1988 121376
1988 105814
1988 181376
1988 47479
1988 61863
1988 295428
1988 67948
1988 35604
1988 201761
1988 47240
1988 17141
1988 339969
1988 205326
1988 65574
1988 237660
1988 2735
1988 186838
1988 171410
1988 27483
1988 372481
1988 183088
1988 382219
1988 108753
1988 139522
1988 156374
1988 153249
1988 385605
1988 183350
1988 273917
1988 34555
1988 197516
1988 73710
1988 307200
1988 50015
1988 207708
1988 38907
1988 267269
1988 169187
1988 211816
1988 130772
1988 420987
1988 207067
1988 105289
1988 362056
1988 166189
1988 165594
1988 213325
1988 425246
1988 100773
1988 12961
1988 162509
1988 244446
1988 125855
1988 14238
1988 141905
1988 142148
1988 219242
1988 334055
1988 332643
1988 227218
1988 356354
1988 66999
1988 25931
1988 229172
1988 23280
1988 33833
1988 358896
1988 349265
1988 80673
1988 278258
1988 4079
1988 176916
1988 186904
1988 183377
1988 283748
1988 185446
1988 138774
1988 211552
1988 214189
1988 393511
1988 237810
1988 184168
1988 19164
1988 26334
1988 5463
1988 204913
1988 189047
1988 453949
1988 350982
1988 434146
1988 147147
1988 78054
1988 29477
1988 210079
1988 298862
1988 256809
1988 177167
1988 149178
1988 174785
1988 359397
1988 51808
1988 156545
1988 206753
1988 205073
1988 427723
1988 272421
1988 111914
1988 455898
1988 55401
1988 13179
1988 30069
1988 326180
1988 307356
1988 70148
1988 98392
1988 43397
1988 231061
1988 398104
1988 31171
1988 86487
1988 181289
1988 35451
1988 102886
1988 161323
1988 22742
1988 243274
1988 151749
1988 151164
1988 247060
1988 167942
1988 52791
1988 5734
1988 12899
1988 14219
1988 12581
1988 175014
1988 19871
1988 164299
1988 313173
1988 234322
1988 412300
1988 255880
1988 90560
1988 428869
1988 211179
1988 252870
1988 40886
1988 92693
1988 28446
1988 73755
1988 95273
1988 211492
1988 219536
1988 187431
1988 148273
1988 125410
1988 306512
1988 9786
1988 8614
1988 139702
1988 103829
1988 434800
1988 273927
1988 195849
1988 455143
1988 203647
1988 174222
1988 407375
1988 94748
1988 129254
1988 155690
1988 292804
1988 70330
1988 219047
1988 158858
1988 319744
1988 87373
1988 261917
1988 159762
1988 348124
1988 455655
1988 293038
1988 36681
1988 351417
1988 454491
1988 183979
1988 289555
1988 234520
1988 381539
1988 99807
1988 47448
1988 119226
1988 284364
1988 52928
1988 142603
1988 328785
1988 8169
1988 230134
1988 91003
1988 145845
1988 36502
1988 43214
1988 195669
1988 235171
1988 376576
1988 191324
1988 221043
1988 152290
1988 122281
1988 97757
1988 153572
1988 87633
1988 173711
1988 95973
1988 346934
1988 53453
1988 306362
1988 430661
1988 26677
1988 59960
1988 93051
1988 83283
1988 191108
1988 202706
1988 428447
1988 80009
1988 253974
1988 417026
1988 180884
1988 162190
1988 431079
1988 275177
1988 358783
1988 355568
1988 134564
1988 65433
1988 373076
1988 59662
1988 410979
1988 23676
1988 232353
1988 113614
1988 299984
1988 130054
1988 410133
1988 9727
1988 279541
1988 161085
1988 99839
1988 308212
1988 327857
1988 191193
1988 7801
1988 17572
1988 24755
1988 60124
1988 78133
1988 358891
1988 336044
1988 107443
1988 218426
1988 241885
1988 36735
1988 109087
1988 132027
1988 81696
1988 270930
1988 311670
1988 88286
1988 206203
1988 231993
1988 394824
1988 223685
1988 355015
1988 356499
1988 211068
1988 419787
1988 429535
1988 140055
1988 370860
1988 184845
1988 80989
1988 197697
1988 171886
1988 430996
1988 36768
1988 73911
1988 132127
1988 175780
1988 93643
1988 52456
1988 59484
1988 275237
1988 4921
1988 351727
1988 84840
1988 217356
1988 291899
1988 239369
1988 216383
1988 409675
1988 285440
1988 281077
1988 98259
1988 365389
1988 98645
1988 413621
1988 143799
1988 142843
1988 395828
1988 47314
1988 387702
1988 107808
1988 443732
1988 275338
1988 76918
1988 58032
1988 33569
1988 236732
1988 51198
1988 208437
1988 83095
1988 132400
1988 259881
1988 20715
1988 449759
1988 6029
1988 411263
1988 30113
1988 170846
1988 265554
1988 386455
1988 355699
1988 195297
1988 116313
1988 313080
1988 229690
1988 88515
1988 72349
1988 422280
1988 7480
1988 146524
1988 384873
1988 299174
1988 414125
1988 68885
1988 190900
1988 36854
1988 290924
1988 104078
1988 61005
1988 453751
1988 28951
1988 188591
1988 80004
1988 255081
1988 240806
1988 270485
1988 391052
1988 372500
1988 164059
1988 344957
1988 157032
1988 51274
1988 126812
1988 168933
1988 224412
1988 116541
1988 423403
1988 308542
1988 228125
1988 304629
1988 169707
1988 256363
1988 94626
1988 437098
1988 151460
1988 162191
1988 441359
1988 85515
1988 63338
1988 200858
1988 57653
1988 283491
1988 224709
1988 198932
1988 2080
1988 55443
1988 94269
1988 436684
1988 281359
1988 140784
1988 153152
1988 139901
1988 89695
1988 361871
1988 137789
1988 26289
1988 266200
1988 114152
1988 18170
1988 47355
1988 224200
1988 199981
1988 450844
1988 195068
1988 9643
1988 195248
1988 218581
1988 51428
1988 429439
1988 47927
1988 294735
1988 441430
1988 52414
1988 191812
1988 10706
1988 424173
1988 213405
1988 22265
1988 193270
1988 412601
1988 327901
1988 319960
1988 266400
1988 111170
1988 16480
1988 420107
1988 240889
1988 234933
1988 30839
1988 188665
1988 239962
1988 88259
1988 34487
1988 259278
1988 139480
1988 250556
1988 367221
1988 338176
1988 3808
1988 143214
1988 245924
1988 207297
1988 439178
1988 2497
1988 111911
1988 34161
1988 260274
1988 454106
1988 20473
1988 274163
1988 219248
1988 170056
1988 109897
1988 256187
1988 35544
1988 85744
1988 84459
1988 132210
1988 85332
1988 15376
1988 199793
1988 400577
1988 93006
1988 250415
1988 69274
1988 81688
1988 13104
1988 43582
1988 161436
1988 217391
1988 51640
1988 46085
1988 15532
1988 198300
1988 168444
1988 127479
1988 159809
1988 188752
1988 222735
1988 389122
1988 440337
1988 22869
1988 189957
1988 280689
1988 40989
1988 354342
1988 136111
1988 214059
1988 33986
1988 349113
1988 230283
1988 27712
1988 163504
1988 298792
1988 155027
1988 181985
1988 146102
1988 128820
1988 159586
1988 248596
1988 94971
1988 10176
1988 279516
1988 27247
1988 335043
1988 425831
1988 351935
1988 161322
1988 295879
1988 167376
1988 6633
1988 207626
1988 224548
1988 59338
1988 315389
1988 132441
1988 62195
1988 349095
1988 390322
1988 197320
1988 56304
1988 223606
1988 246465
1988 159244
1988 176064
1988 135997
1988 252556
1988 224586
1988 46841
1988 198913
1988 3932
1988 423961
1988 221491
1988 29847
1988 210496
1988 214167
1988 42483
1988 276187
1988 103031
1988 225507
1988 422705
1988 298321
1988 233404
1988 439612
1988 33341
1988 196385
1988 108383
1988 15351
1988 342050
1988 314463
1988 425195
1988 52897
1988 377682
1988 357177
1988 400421
1988 390360
1988 256566
1988 162429
1988 117641
1988 67846
1988 333614
1988 217712
1988 125854
1988 125510
1988 59905
1988 267441
1988 224790
1988 194069
1988 27826
1988 300127
1988 185374
1988 442466
1988 187213
1988 47465
1988 245001
1988 189826
1988 130555
1988 193364
1988 155521
1988 54483
1988 70057
1988 251963
1988 234121
1988 330142
1988 115103
1988 214580
1988 358921
1988 88801
1988 414869
1988 418616
1988 105513
1988 11575
1988 18481
1988 192349
1988 215991
1988 57003
1988 19837
1988 396851
1988 439836
1988 167897
1988 111235
1988 319815
1988 376371
1988 73062
1988 230245
1988 71401
1988 425254
1988 114599
1988 60035
1988 401054
1988 419550
1988 343778
1988 147242
1988 108088
1988 46075
1988 23642
1988 347623
1988 21331
1988 341698
1988 213895
1988 86018
1988 48519
1988 314104
1988 414922
1988 418893
1988 210722
1988 15778
1988 33424
1988 240433
1988 219154
1988 342543
1988 298339
1988 199983
1988 21975
1988 158333
1988 101788
1988 86774
1988 15243
1988 137448
1988 355642
1988 215645
1988 448349
1988 295658
1988 381389
1988 260723
1988 238710
1988 165824
1988 340640
1988 184405
1988 291690
1988 241892
1988 180734
1988 156246
1988 159806
1988 127735
1988 265547
1988 242879
1988 346622
1988 361964
1988 154078
1988 164311
1988 366780
1988 114360
1988 83697
1988 253554
1988 132404
1988 83487
1988 237556
1988 25626
1988 240620
1988 216018
1988 433330
1988 111433
1988 213159
1988 105046
1988 129200
1988 154675
1988 164881
1988 218209
1988 219701
1988 210583
1988 65819
1988 389519
1988 253625
1988 49336
1988 31209
1988 282450
1988 43023
1988 295486
1988 61953
1988 451473
1988 196813
1988 112384
1988 328381
1988 382944
1988 137454
1988 223492
1988 358617
1988 418706
1988 143611
1988 92137
1988 152526
1988 227286
1988 164277
1988 303956
1988 440711
1988 27886
1988 207791
1988 300430
1988 350375
1988 205904
1988 357315
1988 377119
1988 264560
1988 444227
1988 47799
1988 412556
1988 169303
1988 252686
1988 204931
1988 20273
1988 152658
1988 247833
1988 64343
1988 108731
1988 26180
1988 117534
1988 41285
1988 192549
1988 16514
1988 211971
1988 281985
1988 404522
1988 12595
1988 235326
1988 13596
1988 248970
1988 253809
1988 33669
1988 205058
1988 423750
1988 316552
1988 18740
1988 3617
1988 277885
1988 422923
1988 443413
1988 309196
1988 232226
1988 148915
1988 4937
1988 167778
1988 144232
1988 141164
1988 276404
1988 248029
1988 217458
1988 307789
1988 189241
1988 22674
1988 45714
1988 76419
1988 200138
1988 121246
1988 71407
1988 61278
1988 120915
1988 29937
1988 416044
1988 57630
1988 115005
1988 199133
1988 10147
1988 272131
1988 269849
1988 304605
1988 436549
1988 276420
1988 290051
1988 374730
1988 45559
1988 105816
1988 153737
1988 239464
1988 385953
1988 410587
1988 34814
1988 177747
1988 423108
1988 269590
1988 52308
1988 40595
1988 92066
1988 27311
1988 196507
1988 81424
1988 253305
1988 252995
1988 118896
1988 253370
1988 189810
1988 133133
1988 19335
1988 43269
1988 368193
1988 362756
1988 71827
1988 137529
1988 33989
1988 245556
1988 42041
1988 227567
1988 245417
1988 76165
1988 65407
1988 111880
1988 175716
1988 4285
1988 186317
1988 317200
1988 108206
1988 46117
1988 358369
1988 162921
1988 285817
1988 199908
1988 440664
1988 297252
1988 40128
1988 15807
1988 33016
1988 272385
1988 238241
1988 347763
1988 339713
1988 342065
1988 327603
1988 5500
1988 32228
1988 318451
1988 345479
1988 111563
1988 153180
1988 111575
1988 28253
1988 45130
1988 89773
1988 349531
1988 73835
1988 53967
1988 233828
1988 178194
1988 59733
1988 179463
1988 223066
1988 44759
1988 332693
1988 45488
1988 249663
1988 417245
1988 31464
1988 414059
1988 322085
1988 138762
1988 232805
1988 283793
1988 65999
1988 280599
1988 244186
1988 51339
1988 222501
1988 40231
1988 428503
1988 121575
1988 322075
1988 67624
1988 304080
1988 55805
1988 219900
1988 54558
1988 95761
1988 24501
1988 12928
1988 322792
1988 118915
1988 16574
1988 369760
1988 94979
1988 275654
1988 254693
1988 222394
1988 40565
1988 371390
1988 292093
1988 136347
1988 16309
1988 333518
1988 454342
1988 210264
1988 381497
1988 307774
1988 179739
1988 285608
1988 177958
1988 286243
1988 220440
1988 199654
1988 170275
1988 309319
1988 294832
1988 93224
1988 30360
1988 217886
1988 190008
1988 326490
1988 36729
1988 153663
1988 195510
1988 31624
1988 228755
1988 435500
1988 26205
1988 281782
1988 414828
1988 241083
1988 291928
1988 197420
1988 120951
1988 251706
1988 429069
1988 184861
1988 246804
1988 141476
1988 235844
1988 49648
1988 399722
1988 336594
1988 147841
1988 291749
1988 45363
1988 109975
1988 115899
1988 116643
1988 82773
1988 454189
1988 40909
1988 229978
1988 200118
1988 427507
1988 386196
1988 423847
1988 89543
1988 256781
1988 44238
1988 98015
1988 112061
1988 365822
1988 328017
1988 420722
1988 425497
1988 155612
1988 21347
1988 228201
1988 243640
1988 43577
1988 45082
1988 435376
1988 417783
1988 277750
1988 220954
1988 104603
1988 309077
1988 212194
1988 264983
1988 385699
1988 160045
1988 224313
1988 366208
1988 43532
1988 86501
1988 106042
1988 77562
1988 149700
1988 452247
1988 291779
1988 297120
1988 199968
1988 50200
1988 454617
1988 159299
1988 404683
1988 199228
1988 5424
1988 125263
1988 43276
1988 29403
1988 142132
1988 24182
1988 40168
1988 186261
1988 214455
1988 69634
1988 101238
1988 187438
1988 14185
1988 186047
1988 84468
1988 285104
1988 279381
1988 439054
1988 206469
1988 290900
1988 96758
1988 236452
1988 210440
1988 211385
1988 64719
1988 201659
1988 350677
1988 255760
1988 293249
1988 220937
1988 242950
1988 328834
1988 400203
1988 338671
1988 333742
1988 168475
1988 448806
1988 106492
1988 188160
1988 103416
1988 291233
1988 50620
1988 209573
1988 259137
1988 164742
1988 124358
1988 131267
1988 378195
1988 80267
1988 90556
1988 288466
1988 13798
1988 103590
1988 171389
1988 66265
1988 379770
1988 133365
1988 110222
1988 165291
1988 286230
1988 129163
1988 36489
1988 264858
1988 177177
1988 225725
1988 282519
1988 237837
1988 11954
1988 16598
1988 13487
1988 338697
1988 4525
1988 210156
1988 69234
1988 105065
1988 82732
1988 145972
1988 69111
1988 452269
1988 80544
1988 153169
1988 125718
1988 91052
1988 104057
1988 50286
1988 23213
1988 29234
1988 453115
1988 243087
1988 424621
1988 314121
1988 339918
1988 119045
1988 86905
1988 14442
1988 238548
1988 44657
1988 62722
1988 211812
1988 230063
1988 254073
1988 206562
1988 94704
1988 317114
1988 357385
1988 11330
1988 174272
1988 242423
1988 438471
1988 297187
1988 212160
1988 445852
1988 168675
1988 101838
1988 222728
1988 73476
1988 129511
1988 193097
1988 58291
1988 55861
1988 191704
1988 4718
1988 280803
1988 326777
1988 131394
1988 26862
1988 35334
1988 425058
1988 404763
1988 435813
1988 15432
1988 219997
1988 394823
1988 27694
1988 171732
1988 28588
1988 50897
1988 50788
1988 89647
1988 346548
1988 157176
1988 266092
1988 70807
1988 379528
1988 139712
1988 407720
1988 95655
1988 311772
1988 257602
1988 48570
1988 112683
1988 334112
1988 39470
1988 207259
1988 432465
1988 211991
1988 409533
1988 228971
1988 307769
1988 218586
1988 293192
1988 4745
1988 235455
1988 426509
1988 45364
1988 140416
1988 134978
1988 387522
1988 414770
1988 380338
1988 296567
1988 299369
1988 379904
1988 269839
1988 45391
1988 405864
1988 34236
1988 218210
1988 407988
1988 186572
1988 52499
1988 111918
1988 448556
1988 202936
1988 217783
1988 274011
1988 334510
1988 228080
1988 362552
1988 84827
1988 431929
1988 231447
1988 102009
1988 90261
1988 221927
1988 224130
1988 212418
1988 92302
1988 242392
1988 81405
1988 21386
1988 201431
1988 39882
1988 358580
1988 84195
1988 62356
1988 168424
1988 324795
1988 134135
1988 164151
1988 168699
1988 284302
1988 353502
1988 15521
1988 206220
1988 444337
1988 242084
1988 438592
1988 218945
1988 6717
1988 230259
1988 169748
1988 216651
1988 346791
1988 137587
1988 322086
1988 192916
1988 122149
1988 99036
1988 237375
1988 294600
1988 277876
1988 143384
1988 68080
1988 136791
1988 204551
1988 383567
1988 380203
1988 367309
1988 143326
1988 209134
1988 338681
1988 127924
1988 274465
1988 371217
1988 56357
1988 143105
1988 42974
1988 186744
1988 80101
1988 238525
1988 176522
1988 403650
1988 102969
1988 200964
1988 321270
1988 107829
1988 305303
1988 455590
1988 342120
1988 213160
1988 392574
1988 234511
1988 66577
1988 95611
1988 187562
1988 216369
1988 321192
1988 391722
1988 280799
1988 44009
1988 217493
1988 145254
1988 189370
1988 174988
1988 85128
1988 362690
1988 369905
1988 147954
1988 312133
1988 105204
1988 346920
1988 206171
1988 327725
1988 107657
1988 149443
1988 101425
1988 24779
1988 266154
1988 246334
1988 84572
1988 75114
1988 371111
1988 321199
1988 172736
1988 208688
1988 156086
1988 80068
1988 335104
1988 281750
1988 210732
1988 120054
1988 171680
1988 232343
1988 45557
1988 213049
1988 350071
1988 177671
1988 335786
1988 33255
1988 160541
1988 197046
1988 174901
1988 66944
1988 232237
1988 216392
1988 399738
1988 372220
1988 9863
1988 178100
1988 4974
1988 441981
1988 208214
1988 122696
1988 20718
1988 266969
1988 47519
1988 143861
1988 50131
1988 196468
1988 421791
1988 212125
1988 452892
1988 323817
1988 191222
1988 216924
1988 126015
1988 201377
1988 205458
1988 260489
1988 253501
1988 285085
1988 291959
1988 304898
1988 441287
1988 27298
1988 454365
1988 55119
1988 267337
1988 40390
1988 116743
1988 329111
1988 453710
1988 94719
1988 292064
1988 135955
1988 48340
1988 128880
1988 101309
1988 77793
1988 227130
1988 366822
1988 210590
1988 113119
1988 23866
1988 124346
1988 201430
1988 402770
1988 31145
1988 373344
1988 414398
1988 100526
1988 176362
1988 49331
1988 95315
1988 198004
1988 31875
1988 311633
1988 186623
1988 38833
1988 255801
1988 434032
1988 216407
1988 218475
1988 239226
1988 431438
1988 392391
1988 196561
1988 178735
1988 360351
1988 114250
1988 108639
1988 303777
1988 2555
1988 9666
1988 217755
1988 207247
1988 201823
1988 213165
1988 174045
1988 230303
1988 97554
1988 118964
1988 302892
1988 222746
1988 126761
1988 310873
1988 210746
1988 205555
1988 229760
1988 426554
1988 318550
1988 233088
1988 302473
1988 380279
1988 436020
1988 90752
1988 249492
1988 360562
1988 378686
1988 61944
1988 391840
1988 221646
1988 243952
1988 259079
1988 70996
1988 109708
1988 138647
1988 354212
1988 373825
1988 135377
1988 328857
1988 268019
1988 120630
1988 402476
1988 207008
1988 204959
1988 71117
1988 201192
1988 288352
1988 172283
1988 156342
1988 326531
1988 400353
1988 223448
1988 142629
1988 95800
1988 240219
1988 290699
1988 53099
1988 282071
1988 52378
1988 63000
1988 318122
1988 68884
1988 229447
1988 24350
1988 227127
1988 63968
1988 258181
1988 411214
1988 254921
1988 145323
1988 212204
1988 160294
1988 62922
1988 136594
1988 452221
1988 83501
1988 218841
1988 201413
1988 73730
1988 185980
1988 18577
1988 20004
1988 419579
1988 88716
1988 84029
1988 394025
1988 50023
1988 201738
1988 162070
1988 255249
1988 155588
1988 28462
1988 280315
1988 171819
1988 360979
1988 179140
1988 212513
1988 362401
1988 256891
1988 32129
1988 315721
1988 107569
1988 440091
1988 210550
1988 178928
1988 177516
1988 369824
1988 98258
1988 21815
1989 91654
1989 133715
1995 206292
1995 269039
1995 20609
1995 222752
264141 64907
1999 223333
1999 143838
1999 34396
1999 51370
1999 31057
1999 26646
2001 132529
2001 409971
2001 38480
2001 100382
2003 6406
2013 17655
264168 63931
264168 298675
2036 148294
2043 231921
2043 7277
2042 258580
2042 197872
2042 183129
2042 42393
2042 376454
2042 245932
2042 279274
2042 294283
2042 118915
2042 312015
2042 371239
2042 279495
2042 266886
2042 254710
2042 347575
2042 211963
2042 416276
2042 39970
2049 22697
2050 175847
2050 336755
264194 7690
2057 14454
2059 436554
2059 73016
2059 385019
2059 289032
2059 23671
2059 168351
2059 434030
2059 12364
2059 314454
2059 38392
2059 285211
2059 398853
2059 21357
2059 393853
2059 171276
2059 21634
2059 62276
2059 242971
2059 70910
2059 357676
2059 268798
2059 184412
2059 375795
2059 376702
2059 227320
2059 12339
2059 289037
2059 40618
2059 140231
2059 75337
2059 159483
2059 91508
2059 433508
2059 145445
2059 195339
2059 108859
2059 124457
2059 276703
2059 411643
2059 21601
2059 392066
2059 303745
2059 333195
2059 313781
2059 428520
2059 397548
2059 146940
2059 194328
2059 291842
2059 266489
2059 247165
2059 430488
2059 84995
2059 26641
2059 163589
2059 346436
2059 258641
2059 212999
2059 312670
2060 12240
2060 75673
2060 85220
2060 88047
2060 285942
2060 117531
2060 367015
2060 38365
2060 126637
2060 380543
2060 271618
2060 265305
2060 203430
2060 164889
2060 12456
2060 204303
2060 377692
2060 157934
264207 11844
264214 128559
2073 164573
2073 20656
2078 14454
264222 2179
2080 48399
2080 84997
2080 21814
2080 355473
2080 437792
2080 286273
2080 442282
2080 370244
2080 348910
2080 16812
2080 358936
2080 234406
2080 333110
2080 199628
2080 389052
2080 88048
2080 362680
2080 12604
2080 397514
2080 146929
2080 125346
264235 14437
2101 40361
2101 10789
2101 5926
2101 32406
2101 66204
2101 153148
264247 294416
264271 68278
264276 194495
264278 157359
2145 10789
2148 24573
264298 16456
2157 160012
2157 7324
2157 165071
2157 336850
2157 29563
2157 14454
2156 310127
2156 124547
2156 97689
2156 3947
2156 17562
2156 351460
2156 232237
2156 87038
2156 143547
2156 124410
2156 256292
2156 335883
2156 413460
2156 274494
2156 230370
2156 133983
2156 211158
2156 3289
2156 314478
2156 381017
2156 280289
2156 155027
2156 92066
2156 423674
2156 345620
2156 306088
2156 281003
2156 136111
2156 348755
2156 286903
2156 452257
2156 265368
2156 170658
2156 329010
2156 36614
2156 10343
2156 200681
2156 41049
2156 285999
2156 92775
2156 445188
2156 81105
2156 83337
2156 280798
2156 27712
2156 396392
2156 343295
2156 121599
2156 88875
2156 341808
2156 407573
2156 173754
2156 295879
2156 127479
2156 350007
2156 351509
2156 224293
264303 4444
264305 50200
2162 9772
2162 13139
2162 218979
2162 52784
2162 13133
2162 50929
2162 8116
2162 226183
2162 9310
2162 120403
2162 17945
2162 46126
2162 190533
2162 254001
2162 30412
2164 180308
2164 148118
2164 415924
2164 154210
2164 115442
2164 89092
2164 61385
2169 152292
2169 6824
264313 14454
2170 3535
2172 81203
264317 8942
2174 81181
2174 198639
2173 81405
2173 73017
2173 37785
2173 94443
2173 14960
2173 63931
2176 272131
2176 206469
2179 220429
2179 32675
2179 161353
2179 451958
2179 45841
2179 44657
2179 130261
2179 219276
2179 5892
2179 408514
2179 35918
2179 279682
2179 259170
2179 107748
2179 89059
2179 343813
2179 142421
2179 145528
2179 100960
2179 109482
2179 378514
2179 40900
2179 356154
2179 15989
2179 67842
2179 356111
2179 127802
2179 217162
2179 19257
2179 367068
2179 211861
2179 164928
2179 163662
2179 140661
2179 54973
2179 139316
2179 44626
2179 71408
2179 133085
2179 22202
2179 7009
2179 22212
2179 274167
2179 292450
2179 166463
2179 368253
2179 183492
2179 220841
2179 320373
2179 9863
2179 193186
2179 73226
2179 432693
2179 170380
2179 13839
2179 45965
2179 14398
2179 31363
2179 201361
2179 233498
2179 425367
2179 432608
2179 296639
2179 206601
2179 141303
2179 347979
2179 154254
2179 38858
2179 183373
2179 104586
2179 207382
2179 32850
2179 184782
2179 159611
2179 235643
2179 158683
2179 14086
2179 45559
2179 10740
2179 47418
2179 144371
2179 250603
2179 318499
2179 233579
2179 20052
2179 383031
2179 192879
2179 144641
2179 189711
2179 372898
2179 49766
2179 162430
2179 121058
2179 139101
2179 5767
2179 164453
2179 315123
2179 92046
2179 164206
2179 186623
2179 138012
2179 91632
2179 109491
2179 271241
2179 71676
2179 55585
2179 76759
2179 156747
2179 113295
2179 226001
2180 86130
2180 39582
2180 211789
2180 3808
2180 250344
2180 113707
2180 252368
2180 23555
2180 402654
2180 375572
2180 364005
2180 178621
2180 194494
2180 285368
2180 254351
2180 255059
2180 318609
2180 132447
2180 279880
2180 71722
2180 179392
2180 108021
2180 115845
2180 27423
2185 32527
2185 175410
2185 152387
2185 39782
2186 13393
2188 99820
2188 152019
2188 90127
2188 52329
2188 110873
2188 44519
2188 87383
2188 152387
2188 217909
2188 175476
2188 87404
2188 46378
2188 423422
2188 55683
2188 235805
2188 78695
2188 152394
2188 415618
2188 225454
2188 357989
2188 151622
2188 283692
2188 210496
2188 13164
2188 98451
2188 141006
2188 112645
2188 171791
264344 102175
2200 50750
264356 236837
2218 44515
2218 255526
2218 158638
2218 149355
2218 177969
2218 101110
2218 46417
2218 177313
2218 7719
2218 111524
2218 303495
2218 42380
2218 50662
2218 28644
2218 140258
2218 104535
2218 28719
2218 138494
2218 39874
2218 100036
264366 126508
2235 139516
2237 18700
2237 83432
2237 177431
2237 318645
2237 206498
2237 121076
2237 171322
2237 433090
2237 42064
2237 406185
2237 316624
2237 416746
2237 351678
2237 451720
2237 10290
2237 56229
2237 142136
2237 184674
264383 309936
2243 2251
2244 240806
2244 55622
2244 202180
2244 197344
2244 242169
2244 174627
2244 9129
2244 357839
2244 200055
2244 103424
2244 196334
2244 237059
2244 85602
2244 442436
2244 52784
2244 104863
2244 94422
2244 421735
2244 13609
2244 455659
2244 2779
2244 247267
2244 125423
2244 264956
2244 8410
2244 388729
2250 109608
2255 25195
2261 42655
264411 136926
2269 16185
264415 160383
264419 68278
2285 18938
2285 9451
2285 37812
2285 55168
2287 118964
2287 13606
2287 152167
2287 240099
2287 217458
2287 341808
2287 121706
2287 112555
2287 106663
2287 265800
2287 274251
2287 295621
2287 37753
2287 47529
2287 447222
2287 99260
2287 211313
2287 3027
2287 22497
2287 239849
2287 47511
2287 126317
2287 231016
2287 317713
2287 206469
2287 303705
2287 240925
2287 131299
2287 121676
2287 168332
2287 271997
2287 93275
2287 73472
2287 25203
2287 207420
2287 201793
2287 10022
2287 271943
2287 81148
2287 384217
2287 47504
2287 204655
2287 6712
2287 222169
2287 80009
2287 396921
2287 246734
2287 47503
2287 231013
2288 285476
2288 321674
2288 438188
2288 384776
2288 217325
2288 370373
2289 297337
264441 113099
2298 65644
264444 113099
2308 372286
2308 139634
2308 214040
2308 243760
2308 30400
2308 116968
2308 189057
2308 71145
2308 331399
2308 309009
2308 90567
2308 100912
2308 152400
2308 211366
2308 56044
2312 76264
2312 85046
2312 40386
2312 182077
2312 91841
2312 49981
2312 29761
2312 10159
2312 329932
2312 8273
2312 29696
2312 18915
2312 76294
2312 37636
2312 298487
2312 436069
2312 188280
2312 335942
264458 120347
264462 13633
2320 105251
2320 255208
2320 72608
2320 163383
2320 52368
2320 27425
2320 194395
2320 16420
2320 99944
2320 64977
2320 51334
2320 38678
2320 67158
2320 14358
2320 167852
2320 191249
2320 72643
2320 16282
2320 52978
2320 29786
2320 61687
2320 15165
2320 225155
2320 3125
2320 113793
2320 382654
2320 89688
2320 25538
2320 61840
2320 6499
2320 180457
2320 62753
2320 15410
2320 5959
2320 82770
2320 129262
2320 299253
2320 55226
2320 29677
2320 25532
2320 82987
2325 23129
2330 36256
264476 9964
264476 3627
2333 55539
2338 55539
2348 297342
2348 320971
2348 220512
2348 227521
2348 237873
2348 255484
2348 432190
2348 67162
2348 301427
2348 255487
2348 249113
2348 159661
2348 387066
2348 291842
2348 24620
2348 155213
2348 338100
2348 365266
2348 185972
2348 27024
2348 343210
2348 182126
2348 193759
2348 334859
2348 244974
2348 251470
2348 144743
2348 231483
2348 225527
2348 388877
2348 221246
2348 211412
2348 227597
2348 81181
2348 41355
2348 438679
2348 147407
2348 116611
2348 319824
2348 410853
2348 288854
2348 18370
2348 35614
2348 384951
2348 173680
2348 93000
2348 163401
2348 404633
2348 57634
2348 313954
2348 326140
2348 224208
2348 88711
2348 436250
2348 326289
2348 380716
2348 189697
2348 400497
2348 321759
2348 235865
2348 145543
2348 437337
2348 60923
2348 291563
2348 127132
2348 234877
2348 152081
2348 413915
2348 210366
2348 444556
2348 353245
2348 26223
2348 224845
2348 389318
2348 230712
2348 30466
2348 372384
2348 203368
2348 241992
2348 453156
2348 128019
2348 38152
2348 95443
2348 451916
2348 196954
2348 112530
2348 164141
2348 422205
2348 393147
2348 244854
2348 79822
2348 14476
2348 194033
2348 218795
2348 325899
2348 200333
2348 352537
2348 148068
2348 113774
2348 43342
2348 434248
2348 149675
2348 173274
2348 180045
2348 443329
2348 296404
2348 195826
2348 227399
2348 452442
2351 273379
2351 171218
264495 27311
264495 3998
264499 60463
264499 26571
2357 318404
2357 160373
2357 341144
264503 353400
2359 89880
2361 241558
2361 59870
2362 408448
2363 33063
2364 39874
2371 19837
2371 25495
2371 41406
2371 158033
2371 153769
2376 62836
2377 377734
264526 7785
2386 310612
2386 207030
2396 214554
2396 425451
2396 337312
2396 230008
2397 87540
2403 97261
2404 62852
2404 138495
2404 46471
2404 141960
2404 50548
2406 26491
2413 12276
2416 71531
2416 3269
2416 31771
2416 401447
2418 147041
2418 371511
2421 14454
2419 22697
2423 7274
2423 50901
264580 65097
2447 11710
264592 196435
264610 11714
264612 136252
264618 59891
264620 14454
264623 31678
2479 6539
2497 7501
2503 61483
264653 68278
2512 20891
2512 61291
2512 59134
2512 174413
2512 18824
2517 444769
2517 10194
2517 90863
2517 232237
2517 171821
2517 143510
2517 38498
2517 11555
2517 22701
264674 432884
2531 195210
264679 8942
2555 4208
2555 7437
2555 3998
264702 142175
2561 150621
2568 232832
2568 61967
2568 259103
2568 176958
2568 7633
2568 160554
2568 397918
2568 201698
2568 152796
2568 328764
2568 179606
2568 281788
2568 160677
2568 426985
2568 98891
264716 19913
264720 75846
264726 120681
2582 2622
2588 11714
2594 403420
2594 236295
2594 307768
2594 384961
2594 412564
2594 258422
2594 66474
2594 42618
2594 401870
2594 141263
264758 14454
2616 146821
2616 176294
2630 51329
2630 64243
2634 24669
2634 155393
2634 194077
2634 190158
2634 82729
2634 98392
2634 92669
2634 128794
2634 36805
2634 15370
2634 171706
2634 59338
2634 375954
2634 236813
2634 401447
2634 400577
2634 52940
2634 290763
2634 50590
2634 180189
2634 201799
2634 221342
2634 243685
2634 35081
2634 128799
2634 121640
2634 260685
2634 384099
2634 140784
2634 18674
2634 362896
2634 201839
2634 151082
2634 9972
2634 156846
2634 28866
2634 344976
2634 234513
2634 152665
2634 384842
2634 377119
2634 17191
2634 159682
2634 118132
2634 296173
2634 232353
2634 221491
2634 260540
2634 411843
2634 136594
2634 137587
2634 9863
2634 78537
2634 117651
2634 143384
2634 310104
2634 63626
2634 86358
2634 158497
2634 10343
2634 90232
2634 416668
2634 217015
2634 281742
2634 106661
2634 51983
2634 160234
2634 368394
2634 115112
2634 275848
2634 144865
2634 240770
2634 129200
2634 43726
2634 268624
2634 11921
2634 184226
2637 18580
2639 105243
2639 86071
264788 120347
2645 345993
2645 340791
2645 12991
2645 89075
2645 85064
2645 156668
2645 8250
264792 55471
2650 195218
264796 156605
2662 59964
2662 141342
2662 148140
2662 11773
2662 33015
2662 219532
2662 235502
2662 180561
2662 194121
2662 143674
2662 261451
2662 384822
2662 61066
2662 325601
2662 94232
2662 100193
2662 322597
2662 346160
2662 78313
2662 272840
2662 216891
2662 97010
2662 352690
2662 252492
2662 210136
2662 141999
2662 5716
2662 88419
2662 211830
2662 130913
2662 358543
2662 213158
2662 27311
2662 187496
2662 288158
2662 124899
2662 27903
2662 165479
2662 298792
2662 132042
2662 109029
2662 221360
2662 117237
2662 140060
2662 270411
2662 336852
2662 419144
2662 72413
2662 151877
2662 278563
2662 331199
2662 169641
2662 410367
2662 287677
2662 286177
2662 48267
2662 122760
2662 288214
2662 251259
2662 95569
2662 230830
2662 82596
2662 446268
2662 436038
2662 420264
2662 223498
2662 226412
2662 323703
2662 71531
2662 114370
2662 238522
2662 314507
2662 337808
2662 234316
2662 25922
2662 397885
2662 33557
2662 448368
2662 323993
2662 379536
2662 191172
2662 79986
2662 111915
2662 125832
2662 28388
2662 78206
2662 156070
2662 29477
2662 217360
2662 138016
2662 358031
2662 42068
2662 442203
2662 245339
2662 393749
2662 281380
2662 158353
2662 4779
2662 233834
2662 302504
2662 142281
2662 22991
2662 353547
2662 141739
2662 42569
2662 285727
2662 162044
2662 216459
2662 164103
2662 328761
2662 173360
2662 39474
2662 409458
2662 154210
2662 28389
2662 428889
2662 164505
2662 403212
2662 234314
2662 287220
2662 155699
2662 98392
2662 391171
2662 213189
2662 28827
2662 267415
2662 215476
2662 178910
2662 218289
2662 81636
2662 441620
2662 176317
2662 225345
2662 420957
2662 233160
2662 236230
2662 369651
2662 54984
2662 271983
2662 224681
2662 81575
2662 227234
2662 265819
2662 385036
2662 150851
2662 440677
2662 141346
2662 431865
2662 416147
2662 312271
2662 129141
2662 252404
2662 432854
2662 242297
2662 45843
2662 49999
2662 247965
2662 312298
2662 24386
2662 328443
2662 234610
2662 281382
2662 154085
2662 273405
2662 103441
2662 273427
2662 168426
2662 249492
2662 183185
2662 140573
2662 130914
2662 177522
2662 154947
2662 189675
2662 177150
2665 17241
264812 68278
2669 86514
2676 361362
2676 148081
2676 382025
2676 397349
2676 166679
2676 245808
2676 97634
2676 389134
2676 295043
2676 260798
2676 291754
2676 118895
2676 162853
2676 311088
2677 37020
2677 112133
2680 428477
2680 287488
2680 83139
2680 92928
2680 360433
2680 106227
264830 186443
2691 171442
2696 220458
2696 371026
2696 188443
2696 364797
2696 423912
2696 138826
2696 94082
2696 113036
2696 36973
2696 303128
2696 217352
2696 362997
2696 105843
2696 184744
2696 61395
2696 188893
2696 257664
2696 322204
2696 51559
2696 330340
2696 211061
2696 444216
2696 126139
2696 191108
2696 389771
2696 332418
2696 84894
2696 141185
2696 157865
2696 428350
2696 206302
2696 159366
2703 198983
2703 67435
264848 89582
2713 107712
2717 120991
2717 354501
264863 339896
264864 298935
264874 250519
2733 160339
2733 54529
2735 335308
2739 79505
2739 38903
2739 94332
2739 424750
2739 145382
2741 377369
264890 51757
2750 97515
2750 129279
2750 129277
264898 50299
2765 23960
2765 121058
2765 134488
2765 13113
2765 444539
2765 22212
2765 94270
2765 75142
2765 45951
2765 231607
2765 217607
2765 19257
2765 41285
2765 437819
2765 430235
2765 33569
2765 166463
2765 428838
2765 35918
2765 180942
2765 154622
2765 113800
2765 234660
2765 353102
2765 74573
2765 45488
2765 204237
2765 171150
2768 40563
2769 42370
2772 24630
2786 119294
2786 167923
2786 269698
2786 349222
2786 90534
2786 154076
2786 290717
2786 170780
2786 143440
264940 93585
2798 205270
2799 150543
2799 149168
2804 2824
2804 74685
264948 7599
2807 2816
2807 52848
2807 113358
2816 180420
264966 14454
2823 357797
2824 175831
2824 370894
2824 240599
2824 262020
2824 277912
2824 377067
2824 248545
2824 275027
2824 198783
2824 309028
2824 316967
2824 238293
2824 419826
2824 285587
2824 420317
2824 103690
2824 290094
2824 362840
2824 287945
2824 386090
2824 30551
2824 115072
2824 187507
2824 268873
2824 115019
2824 371041
2824 343345
2824 121867
2824 246154
2824 292171
2824 185768
2824 245559
2824 356184
2824 229405
2824 191792
2824 155795
2824 371305
2838 51757
264992 151543
2849 149865
2849 150143
2849 154462
2849 347512
2849 383859
2849 3821
264998 364469
2860 154462
2869 101738
2872 2886
2872 3822
2872 154462
2872 92613
2872 106440
2876 3232
2879 40216
2879 14454
2887 217925
265032 36371
265034 9323
2890 137075
2890 293184
2890 441429
2890 209315
2892 101932
265039 4429
265044 36368
2901 26932
265049 12473
2904 101738
2913 440966
2913 108968
2913 7668
265060 163279
265060 132009
2925 65411
2925 137071
2925 38010
2925 113786
2929 74720
2930 65411
2934 254425
2934 255682
2934 221838
2934 370793
2934 180359
2934 360795
2934 279547
2934 378481
2934 409647
2934 385063
2934 246141
2934 241130
2934 188760
2934 361205
2934 298268
2934 331233
2934 385980
2934 331735
2934 104002
2934 225650
2934 272706
2934 188067
2934 282860
2934 252957
2934 101339
2934 171288
2934 87022
2934 242469
2934 101465
2934 237882
2934 104326
2934 251837
2934 288517
2934 202347
2934 292772
2934 101333
2934 212777
2934 137073
2934 282687
2934 186747
2934 273533
2934 275067
2934 374298
2934 292150
2934 343042
2934 291162
2934 248184
2934 313910
2934 178625
2934 188759
2934 376174
2934 281785
2934 196469
2934 108460
2934 357404
2934 177931
2934 286697
2934 385494
2934 292982
2934 384330
2934 294944
2934 62749
2934 298594
2934 151424
2934 227916
2934 200984
2934 399003
2934 144008
2934 349571
2934 223348
2934 298057
2934 147045
2934 269106
2934 51731
2934 380756
2934 310498
2934 195424
2934 126355
2934 273614
2934 256459
2934 54483
2934 385440
2934 327700
2934 237586
2934 290328
2934 115168
2934 371405
2934 249714
2934 246293
2934 290992
2934 115167
2934 92609
2934 406325
2934 248545
2934 416003
2934 157833
2934 169561
2934 253835
2934 127470
2934 347829
2934 218319
2934 272320
2934 348606
2934 310801
2934 66793
2934 270662
2934 112137
2934 358129
2934 275082
2940 180866
2940 141342
2940 33973
265085 61948
2941 105388
2941 105840
2941 144026
2941 179945
2941 137522
2941 4963
2941 75024
2941 401447
2941 365468
2941 4830
2941 408321
2941 224235
2941 205390
2941 91175
2941 269891
2941 125804
2941 42169
2941 249766
2941 43859
2941 18695
2941 269150
2941 176554
2941 215424
2941 39660
2941 195945
2941 394024
2941 248093
2941 178862
2941 404491
2941 210705
2941 4730
2941 181881
2941 208660
2941 66820
2941 71774
2941 81150
2941 6894
2941 374779
2941 20471
2941 24667
2941 252516
2941 116164
2941 298995
2941 63339
2941 25034
2941 4974
2941 137423
2941 321938
2941 9915
2941 18023
2941 119137
2941 229626
2941 113779
2941 116070
2941 428576
2941 378748
2941 182012
2941 272860
2941 314831
2941 39833
2941 411847
2941 242262
2941 86039
2941 359585
2941 109192
2941 453845
2941 295000
2941 413601
2941 321851
2941 117762
2941 197101
2941 189753
2941 21311
2941 249606
2941 197713
2941 171659
2941 420900
2941 107270
2941 223634
2941 56934
2941 401755
2941 18021
2941 219395
2941 295033
2941 341637
2941 344120
2941 385185
2941 234765
2941 285604
2941 240270
2941 5693
2941 104252
2941 246641
2941 323423
2941 136461
2941 296506
2941 438637
2941 295206
2941 103968
2941 392354
2941 334047
2941 312783
2941 411811
2941 364869
2941 377406
2941 371394
2941 289446
2941 283585
2941 377961
2941 112235
2941 123361
2941 51876
2941 320319
2941 422390
2941 425343
2941 248437
2941 104737
2941 424672
2941 397216
2941 329623
2941 7505
2941 15927
2941 175025
2941 331952
2941 255728
2941 168057
2941 132471
2941 103958
2941 124332
2941 342742
2941 11921
2941 408279
2941 146413
2941 25093
2941 440555
265089 149264
265090 16801
265091 149264
2957 26906
2962 390294
265106 73949
265106 130099
265106 24755
265106 217199
265106 183501
2985 249047
2984 11254
2984 9324
2984 13680
2984 6993
2984 22651
2988 181130
2990 14454
3000 81099
3000 65745
3008 108744
3009 180422
3010 11844
3010 369356
265155 132318
3017 158606
3017 12731
3017 87650
3017 114255
265163 9964
3021 424273
3022 71277
265168 206586
3027 16801
3027 126902
3027 13609
3027 5155
3027 46328
3027 5123
265176 279504
3037 9116
3037 278127
3038 3056
3054 78347
265200 115382
3060 9484
3066 9192
3066 14725
3066 37726
265213 101738
265222 57105
265222 95239
265222 34312
265223 187945
265225 62205
3092 9353
265242 4730
265243 28462
3101 4826
3119 259633
3125 40037
3125 32696
3125 35366
3126 99949
3128 5603
3133 27231
3134 9964
3134 137628
3145 159869
265300 128559
3158 14454
3166 30561
3185 446937
265334 13765
3191 107045
3191 359866
3191 27156
3191 20701
265339 16460
3197 98813
3197 127479
3197 70329
3199 233504
3199 354044
3199 223716
3199 231997
3199 145667
3199 314862
3202 12687
3205 353993
3205 176572
3207 3214
3207 11112
3207 19068
3214 327480
3214 18168
3214 13722
3214 110428
265359 11844
3216 183528
3216 366442
3216 164375
265361 55471
3230 26921
3232 159898
3232 148839
3232 183023
3232 245847
3232 306254
3232 244856
3232 240502
3232 297080
3232 179562
3239 154947
3239 201326
3239 142304
3239 316132
3239 143492
3239 352805
265385 265386
265387 403331
265388 8767
265390 92084
265395 234492
3254 101819
3255 3998
3255 110903
3255 53126
3255 43864
3258 148038
265404 27848
3263 60236
3264 8125
265409 49178
3270 73423
3270 15794
265417 433454
265419 27185
3277 52299
3277 3300
3277 216257
3282 3459
265429 278046
265429 89582
3287 15926
3287 3998
3287 105722
3289 72960
3289 65337
3289 155895
3289 234089
3289 54442
3289 3300
3289 197589
3289 103447
3290 57834
3290 166584
3292 109672
3292 56684
3292 225098
3292 50314
265439 52793
3300 103447
3300 45383
3300 72960
3300 9960
3303 380455
3308 83610
3308 5483
3319 16248
3319 213253
3319 160439
3319 10236
3319 21155
3319 306988
3319 6495
3319 44295
3319 47158
265463 169045
3323 126844
3334 190307
3334 46279
3334 208712
3334 108457
3334 81417
3334 353680
3334 228705
3336 208226
3336 180749
3336 54856
265486 156668
3341 291704
3341 397854
3341 64977
3341 94017
3341 25966
3341 129632
3341 163386
3341 29563
3341 244515
3341 46335
3341 72498
3341 136044
3341 18495
3341 282596
3341 84959
3341 271333
3341 37241
3341 191571
3341 114942
3341 131727
3341 134570
3341 166992
3353 3533
3359 133864
3360 186963
3360 395364
3360 180747
3360 291374
3360 78276
3360 17191
3360 67181
3360 35077
3360 8377
3360 251987
3360 109368
3360 187016
3360 57790
3360 431998
3360 79138
3360 218667
3360 10109
3360 235613
3360 149809
3360 18666
3360 321022
3362 32028
3362 56171
3362 20636
265513 80247
3369 250519
265516 35365
3372 319679
3372 107120
3372 107534
3372 30329
3372 180909
3372 126312
3372 377948
3372 150394
3372 366350
3372 269242
3372 26430
3385 428036
265534 11792
3393 106351
3393 330726
3393 215071
3393 183375
3393 45507
3393 160295
3393 18019
3393 441384
3393 151137
3393 95288
3393 201676
3393 300916
3393 445787
3393 93923
3393 172449
3393 13525
3393 141860
3393 190533
3393 48960
3393 245545
3393 187178
3393 444975
3393 334961
3393 210941
3393 419514
3393 69408
3393 445406
3393 112110
3393 124357
3393 170662
3393 40901
3393 215551
3393 346495
3393 88992
3393 84098
3393 98699
3393 447269
3393 437260
3393 243347
3393 302304
3393 98286
3393 413001
3393 375797
3393 343464
3393 41067
3393 45255
3393 195006
3393 86216
3393 172848
3393 200522
3393 251261
3393 353192
3393 242704
3393 38001
3393 424921
3393 49253
3393 108620
3393 418112
3393 224125
3393 164028
3393 70584
3393 156834
3393 445711
3393 305751
3393 176683
3393 455572
3393 379984
3393 269693
3393 272685
3393 403317
3393 30604
3393 54605
3393 209897
3393 308447
3393 44928
3393 177392
3393 211289
3393 189826
3393 431960
3393 212440
3393 289228
3393 107409
3393 109237
3393 153739
3393 435500
3393 199072
3393 155258
3393 142581
3393 174744
3393 272763
3393 186902
3393 102891
3393 87619
3393 414310
3393 169495
3393 442323
3393 449202
3393 307102
3393 201659
3393 258247
3393 171315
3393 183156
3393 197490
3393 158675
3393 87266
3393 289565
3393 231178
3393 442835
3393 185574
3393 343224
3393 412450
3393 328113
3393 166120
3393 209099
3393 354650
3393 438910
3393 440368
3393 231046
3393 277483
3393 243065
3393 439443
3393 75256
3393 373413
3393 32282
3393 8665
3393 28979
3393 205319
3393 240563
3393 453871
3393 43005
3393 233507
3393 111594
3393 185960
3393 13798
3393 380122
3393 278942
3393 217718
3393 102756
3393 439599
3393 57629
3393 74718
3393 52123
3393 429662
3393 98246
3393 160700
3393 57634
3393 422526
3393 99711
3393 275730
3393 261421
3393 279895
3393 309194
3393 54707
3393 220541
3393 134148
3393 189039
3393 53419
3393 199521
3393 206123
3393 218427
3393 35846
3393 223397
3393 123605
3393 433724
3393 362557
3393 213428
3393 350821
3393 257432
3393 120403
3393 10422
3393 328680
3393 208812
3393 36626
3393 325783
3393 219388
3393 222466
3393 439635
3393 223405
3393 65796
3393 94191
3393 173869
3393 422420
3393 436801
3393 399815
3393 382846
3393 59587
3393 15857
3393 250537
3393 97692
3393 222164
3393 109034
3393 221342
3393 341876
3393 81169
3393 283392
3393 331754
3393 203547
3393 312711
3393 275474
3393 39882
3393 405051
3393 81405
3393 21449
3393 66912
3393 217651
3393 250814
3393 222866
3393 296713
3393 267859
3393 243130
3393 446128
3393 9310
3393 438839
3393 429827
3393 173963
3393 394410
3393 212134
3393 214971
3393 306683
3393 19086
3393 35659
3393 405054
3393 218535
3393 239864
3393 181994
3393 157092
3393 411297
3393 77651
3393 48313
3393 64533
3393 98285
3393 156160
3393 122150
3393 203466
3393 37177
3393 349474
3393 107413
3393 136120
3393 212022
3393 180149
3393 171647
3393 354180
3393 90382
3393 245617
3393 425533
3393 208849
3393 358808
3393 122361
3393 137477
3393 327890
3393 21152
3393 80660
3393 279032
3393 139329
3393 152382
3393 435562
3393 71406
3393 352623
3393 385085
3407 261259
3407 15521
265557 42178
3419 440162
3419 355680
3419 29599
3419 379483
3419 159235
3419 285717
3419 191875
3419 246007
3419 211508
3419 211344
3419 410475
3419 210156
3419 251886
3419 419144
3419 127355
3419 308140
3419 357940
3419 326997
3419 235753
3419 448734
3419 308826
3419 96491
3419 425375
3419 423998
3419 328451
3419 378900
3419 324938
3419 195304
3419 218062
3419 187371
3419 234664
3419 108191
3419 164656
3419 191450
3419 370041
3419 27903
3419 213965
3419 210722
3419 290991
3419 144476
3419 258473
3419 218437
3419 295395
3419 420391
3419 215445
3419 217256
3419 234663
3419 313621
3419 239056
3419 448969
3419 390511
3419 43556
3419 234322
3419 400049
3419 246568
3419 284818
3419 436896
3419 211607
3419 224132
3419 245617
3419 217712
3419 286164
3419 325995
3419 355327
3419 233212
3419 221793
3419 271747
3419 218402
3419 145533
3419 271778
3419 329022
3419 218191
3419 256903
3419 87619
3419 217450
3419 316781
3419 237794
3419 221346
3419 221853
3419 159237
3419 193649
3419 265566
3419 383889
3419 192805
3419 382021
3419 205127
3419 186542
3419 60422
3419 196810
3419 260826
3419 374584
3419 340566
3419 223808
3422 5155
265569 112050
265571 11714
3428 3469
3431 129839
3431 318725
3431 279812
3440 434725
3440 163173
265585 125900
3443 146914
3443 397413
3443 290764
3443 432150
3443 211038
3443 170188
3443 289034
3443 415438
3443 416457
3443 310053
3443 146992
3443 290788
3443 230080
3443 334918
3443 430460
3443 425862
3443 270024
3443 235093
3443 442908
3443 12384
3443 317071
3443 357912
3443 388755
3443 213621
3443 289041
3443 402330
3443 254054
3443 134790
3443 198575
3443 275218
3443 233291
3443 352752
3444 119517
265588 11921
3452 445352
265599 16460
3460 336406
3459 353004
265612 265613
3469 142642
3469 95651
3470 27089
265613 415386
265613 265616
265613 427341
265613 398096
265613 407890
265613 300293
265613 333941
265613 444017
265613 431395
265613 308867
265613 206774
265613 403431
265613 366724
265613 398218
265613 304007
265613 267559
265613 399969
265613 94001
265613 249656
265613 225914
265613 451203
265613 298736
3477 319696
3477 53944
265622 434911
265627 14648
265628 35366
265630 260283
3489 26005
3489 100882
3489 7274
3489 9343
3489 4619
3497 210615
3497 448539
3497 96400
3499 105121
3515 3524
3516 43720
3533 7114
3533 16183
3533 4413
3533 89751
3533 244022
3533 10755
3533 35723
3533 35727
3533 35726
3533 192173
3533 14498
3533 189727
3533 81150
3533 48540
3533 9704
3533 348746
3533 39628
3533 37753
3533 357694
3533 10231
3533 298214
3533 37737
265680 95905
265685 82268
265685 106347
265685 57105
265691 7698
265694 10121
265697 18915
3559 7274
3562 3793
3562 4619
3564 42224
3564 8303
265717 348880
265719 14454
265719 4208
265719 9964
3583 50901
265730 14454
3590 28770
265743 3979
265752 154462
265753 305666
265764 48930
265769 42287
3627 14322
3627 3629
3629 245097
3629 14264
3629 131085
3629 389075
3629 87565
3629 257366
3629 78268
3629 254692
3629 450522
3629 209123
3629 14240
3629 26004
3629 139465
3629 142778
3629 22307
3629 71176
3629 28750
3629 242377
3629 31653
3629 63174
3629 78742
3629 28749
3629 206247
3629 245959
3629 87282
3629 22333
3629 289145
3629 198607
3629 204946
3629 191110
3629 4770
3629 209671
3629 78734
3629 225065
3629 224194
3629 14306
3629 386859
3629 232617
3629 3659
3629 430295
3629 56875
3629 157381
3629 197330
3629 78706
3629 14347
3629 22176
3629 51762
3629 3896
3629 14251
3629 379129
3629 14331
3629 63995
3629 84840
3629 45591
3629 220998
3629 67734
3629 25035
3629 25146
3629 114215
3629 94886
3629 258131
3629 68654
3629 162061
3629 227285
3629 31636
3633 7482
3633 138727
3633 164311
265779 95039
265779 35372
265783 72783
265791 12318
265791 124459
3659 91633
3666 22333
265819 8942
265818 242950
3681 9323
3682 329447
265835 30230
265835 340134
265835 19913
265835 29225
265835 16527
3693 9226
3693 14270
3693 254774
3693 31624
3693 33569
265838 19913
265838 49179
265838 14615
3697 5011
3703 3932
265853 67032
265853 277049
3712 3998
265856 14584
3717 6499
3717 23114
3717 114046
3717 5262
3717 13185
3719 22816
3723 407138
265868 212881
3727 7320
265880 210653
265884 380899
3741 230633
3741 145199
3752 3762
3752 37327
3752 148422
3753 22816
3755 173562
3755 229604
3757 39959
3759 391323
3759 22816
3759 38613
265904 27856
265902 63356
3762 162254
3762 123383
3770 74014
3770 11792
3773 22745
3773 85780
265922 14454
3780 29159
3788 4362
265936 190203
3793 39557
3793 152399
3793 171291
3802 16715
3805 77352
3808 75316
3808 132880
3808 197444
3808 28273
3808 9831
3808 59726
3808 177587
3808 233097
3808 18562
3808 205280
3808 98742
3808 441641
3808 4380
3808 32700
3808 107542
3808 425325
3808 272087
3808 141303
3808 159518
3808 302611
3808 50620
3808 4394
3808 108383
3808 11561
3808 138833
3808 13890
3808 119640
3808 440928
3808 43210
3808 78358
3808 220526
3808 269298
3808 183162
3808 59209
3808 271444
3808 123125
3808 377692
3808 153006
3808 379810
3808 77895
3808 46846
3808 281242
3808 193659
3808 95390
3808 129446
3808 7801
3808 127627
3808 6752
3808 159615
3808 39464
3808 14108
3808 84132
3808 88817
3808 257094
3808 352694
3808 219452
3808 76725
3808 106570
3808 164356
3808 134648
3808 11230
3808 108134
3808 48371
3808 351727
3808 97929
3808 50965
3808 5123
3808 17611
3808 393803
3808 7148
3808 11592
3808 203602
3808 17975
3808 199539
3808 98315
3808 13700
3808 7779
3808 136113
3808 353454
3808 135853
3808 227733
3813 40214
265959 7590
3816 296610
3816 101465
3816 164305
3816 55902
3816 87024
3816 173945
3816 101746
3816 6501
3816 110855
3816 11844
3818 195743
3821 276968
3821 189155
3821 55226
3821 102647
3821 284695
3821 38695
265966 4444
3824 101717
3828 85005
3830 106845
3830 38010
3830 103691
3830 321443
3830 147070
3830 54483
3830 38007
265977 4200
265983 68278
3841 112988
3841 103398
3841 52793
3841 130212
3843 109253
3848 104320
265993 172200
266004 34963
3861 289326
3861 303119
3861 316284
3861 73566
3861 302026
3861 378408
3861 342028
3861 448815
3861 166594
3861 228647
266008 73943
266016 65119
3872 187834
3875 13127
266021 11792
3895 49918
266047 68278
266050 68278
266051 68278
266053 12687
3912 204946
3917 180919
3922 438012
3932 139474
266079 18700
3933 84647
3945 5090
3946 200402
3950 11714
3950 8496
266088 20244
3952 41343
266096 60076
266096 250813
266096 27744
266096 347525
266103 25063
266111 8767
266112 14877
3968 71277
3969 15296
3969 88769
3969 89638
3971 210896
3979 382550
3979 51562
3979 383982
3979 412375
3979 436469
3979 213384
3979 297966
3979 422418
3979 195779
3979 254289
3979 376988
3979 348425
3979 360717
3979 276559
3979 311330
3979 320212
3979 312015
3979 288608
3979 292571
3979 369447
3979 326480
3979 312518
3979 423910
3979 370283
3979 421423
3979 362795
3979 386361
3979 129626
3979 250632
3979 186861
3979 154815
3979 282445
3979 162538
3979 370346
3979 315137
3979 322795
3979 280323
3979 426610
3979 235167
3979 411932
3979 386794
3979 392232
3979 282443
3979 448189
3979 324070
3980 16697
3980 158315
3980 56967
3983 11939
3985 27193
3993 14454
3997 5177
3998 261729
3998 435337
3998 28951
3998 138315
3998 172992
3998 244211
3998 81405
3998 33015
3998 98433
3998 76567
3998 62356
3998 206469
3998 50901
3998 182488
3998 240790
3998 136940
3998 30364
3998 349449
3998 111624
3998 63339
3998 341611
3998 10414
3998 406517
3998 153431
3998 118883
3998 414304
3998 51886
3998 32355
3998 35527
3998 441287
3998 115704
3998 189762
3998 441467
3998 147510
3998 180281
3998 168446
3998 247101
3998 7473
3998 111031
3998 121414
3998 32438
3998 381414
3998 404330
3998 186674
3998 374730
3998 86358
3998 29937
3998 272011
3998 92485
3998 180057
3998 37428
3998 323658
3998 45082
3998 65218
3998 202506
3998 246197
3998 294263
3998 314805
3998 280798
3998 126956
3998 214259
3998 77320
3998 157650
3998 53575
3998 194170
3998 55443
3998 180279
3998 442348
3998 291170
3998 183856
3998 215055
3998 15521
3998 258902
3998 360954
3998 39853
3998 240709
3998 67504
3998 98992
3998 191870
3998 403300
3998 138203
3998 42169
3998 34019
3998 42170
3998 178196
3998 103439
3998 41392
3998 113027
3998 164400
3998 383157
3998 241213
3998 133047
3998 9060
3998 276711
3998 442380
3998 329362
3998 176451
3998 43527
3998 425807
3998 99707
3998 228672
3998 143674
3998 278584
3998 270934
3998 339217
3998 141619
3998 216369
3998 373746
3998 201659
3998 45334
3998 18906
3998 33569
3998 188618
3998 17527
3998 213160
3998 52302
3998 24527
3998 238524
3998 92066
3998 221491
3998 244054
3998 93323
3998 220331
3998 234883
3998 11614
3998 38342
3998 152658
3998 80009
3998 87919
3998 198345
3998 171732
3998 71528
3998 274620
3998 232730
3998 47998
3998 34794
3998 353986
3998 414869
3998 385313
3998 132042
3998 272131
3998 129697
3998 112683
3998 250404
3998 59339
3998 354365
3998 227528
3998 30218
3998 103591
3998 378176
3998 4236
3998 74278
3998 279373
3998 152400
3998 98459
3998 129142
3998 60035
3998 307774
3998 88691
3998 139005
3998 150761
3998 175283
3998 63909
3998 207147
3998 116323
3998 341020
3998 127975
3998 105814
3998 49179
3998 120719
3998 141650
3998 132404
3998 274729
3998 185176
3998 118882
3998 54202
3998 137587
3998 115089
3998 138770
3998 20273
3998 126288
3998 185681
3998 127479
3998 400696
3998 233951
3998 163003
3998 9025
3998 347124
3998 363011
3998 51428
3998 33620
3998 313570
3998 444871
3998 159807
3998 29252
3998 121431
3998 51715
3998 350982
3998 157709
3998 70800
3998 176362
3998 42182
3998 344306
3998 285443
3998 79449
3998 171961
3998 251065
3998 40095
3998 72114
3998 99652
3998 248412
3998 440126
3998 80044
3998 188612
3998 84572
3998 48920
3998 164299
3998 328022
3998 131554
3998 73541
3998 97397
3998 252436
3998 257323
3998 147579
3998 399738
3998 444668
3998 358552
3998 106227
3998 249804
3998 448367
3998 9863
3998 345856
3998 187966
3998 400891
3998 428447
3998 98762
3998 444772
3998 441430
3998 14233
3998 120529
3998 374516
3998 177967
3998 71601
3998 171708
3998 228088
3998 156668
3998 13320
3998 350375
3998 365322
3998 105979
3998 22555
3998 290644
3998 104215
3998 328597
3998 84181
3998 142280
3998 257326
3998 426554
3998 261259
3998 418624
3998 33833
3998 27311
3998 102682
3998 109201
3998 123160
3998 259849
3998 45911
3998 104057
3998 232805
3998 57593
3998 319635
3998 303369
3998 164881
3998 8614
3998 228427
3998 47776
3998 235506
3998 4974
3998 282758
3998 26677
3998 99006
3998 164316
3998 94719
3998 125748
3998 301664
3998 224337
3998 253867
3998 95984
3998 267269
3998 88801
3998 307789
3998 139007
3998 11016
3998 27983
3998 141951
3998 32676
3998 326407
3998 71339
3998 59074
3998 104951
3998 77866
3998 363341
3998 131230
3998 35604
3998 349820
3998 16801
3998 197102
3998 254417
3998 144053
3998 304490
3998 148273
3998 192349
3998 45395
3998 97010
3998 43276
3998 329095
3998 76165
3999 135903
3999 103447
3999 22512
3999 418445
3999 251027
3999 113366
4000 23801
4003 4038
266149 68774
4008 443230
266157 42927
4014 12899
4014 84468
4014 86051
4014 41802
4014 78863
4014 12928
4017 89802
266169 128559
4032 18878
266176 6969
4038 207883
4046 185620
266194 14454
266194 5006
266196 22470
266197 363506
4055 86049
4055 178360
4057 98444
266202 6929
266202 8767
4061 14454
266205 47666
266213 37737
266231 31031
4092 4768
4092 12928
266246 5245
4107 16011
266255 12510
4115 18717
4129 13798
4130 133298
4130 186313
4135 23389
4141 347849
4143 42051
4156 46813
266307 248074
266309 418774
4173 66951
4174 8206
266320 274391
4181 15807
4189 14454
266335 36371
4191 14454
4194 387746
4194 84261
4200 373901
4200 236756
4200 186047
4200 414353
4200 105090
4200 220557
4200 334361
4200 132042
4200 10480
4200 134486
4200 143799
4200 341774
4200 8002
4200 18393
4200 23912
4200 155768
4200 169456
4200 230165
4200 268240
4200 34558
4200 23055
4200 213340
4200 442404
4200 168684
4200 68195
4200 214580
4200 172741
4200 4352
4200 77820
4200 95953
4200 269791
4200 81105
4200 44824
4200 120528
4200 419644
4200 105105
4200 12942
4200 234051
4200 6441
4200 208761
4200 147792
4200 226861
4200 107709
4200 82592
4200 230134
4200 183492
4200 168276
4200 213232
4200 32438
4200 46990
4200 194584
4200 211499
4200 229381
4200 120469
4200 52195
4200 216904
4200 176459
4200 209981
4200 124275
4200 92302
4200 135814
4200 50286
4200 229444
4200 185782
4200 339193
4200 386779
4200 381642
4200 283970
4200 220495
4200 344717
4200 44695
4200 60694
4200 220250
4200 212705
4200 352076
4200 351330
4200 23950
4200 125263
4200 48313
4200 227458
4200 46417
4200 371629
4200 53542
4200 132182
4200 100571
4200 172815
4200 33338
4200 365593
4208 279880
4208 145482
4208 445905
4208 221988
4208 330142
4208 234020
4208 245094
4208 88717
4208 227234
4208 51070
4208 432254
4208 359598
4208 9627
4208 231724
4208 227539
4208 15066
4208 386803
4208 361786
4208 233014
4208 190763
4208 161715
4208 148638
4208 218914
4208 331289
4208 35669
4208 291779
4208 354255
4208 218769
4208 436165
4208 143843
4208 52195
4208 397512
4208 289622
4208 270327
4208 235213
4208 180084
4208 454908
4208 213597
4208 226083
4208 46479
4208 281555
4208 216848
4208 284882
4208 147555
4208 69091
4208 17194
4208 88308
4208 48374
4208 85464
4208 209806
4208 223491
4208 68195
4208 410653
4208 176438
4208 233113
4208 325734
4208 126174
4208 435928
4208 223484
4208 114216
4208 51803
4208 453422
4208 211528
4208 378810
4208 125257
4208 118739
4208 294853
4208 212203
4208 121428
4208 156885
4208 178442
4208 190369
4208 349784
4208 400639
4208 106197
4208 405457
4208 209479
4208 181822
4208 222253
4208 97174
4208 402829
4208 376061
4208 324554
4208 5406
4208 10300
4208 291573
4208 310440
4208 170033
4208 15794
4208 108781
4208 297669
4208 119644
4208 201123
4208 439856
4208 348348
4208 94160
4208 32590
4208 349179
4208 217209
4208 93687
4208 383966
4208 132042
4208 303590
4208 54525
4208 15918
4208 192792
4208 134620
4208 35799
4208 229862
4208 357337
4208 335911
4208 230830
4208 16414
4208 298392
4208 289623
4208 203940
4208 69093
4208 55429
4208 291644
4208 268839
4208 444840
4208 423470
4208 24656
4208 207861
4208 192966
4208 428448
4208 41802
4208 69941
4208 217808
4208 206266
4208 413601
4208 185607
4208 371878
4208 260263
4208 228371
4208 384900
4208 64073
4208 280196
4208 369946
4208 227957
4208 289625
4208 174296
4208 90626
4208 231589
4208 205459
266358 198048
4219 11787
266370 68278
4234 53458
266386 28006
266400 13141
266400 45009
266400 53285
266400 19913
266400 57105
266400 21695
4257 5799
266402 12375
4259 275350
4259 256687
4259 12132
4259 107561
4259 136139
4259 27811
4259 187449
4259 437731
4259 455687
4259 315969
4259 144053
4259 352426
4259 100557
4259 137778
4259 186925
4259 389068
4259 141670
4259 181714
4259 145560
4259 110090
4259 289388
4259 246606
4259 325428
4259 281885
4259 232736
4259 227894
4259 138539
4259 242299
4259 400142
4259 226055
4259 50733
4259 26800
4259 266463
4259 160082
4259 434904
4259 293939
4259 43796
4259 162914
4259 23213
4259 228162
4259 278475
4267 42287
4274 14454
4277 25127
4277 226428
266422 14454
4285 96771
4285 4674
4285 114606
4285 71277
4285 4506
266438 42922
4295 71720
266442 7599
4304 75927
4304 13383
4304 27483
266460 34719
4317 32643
4318 15037
4322 23940
4322 130449
4322 130448
4322 15210
4322 13752
4322 51181
4327 12170
4329 267500
266489 90644
266496 68278
266501 68308
4358 133892
4365 333742
4365 198761
4365 121058
4365 183889
4365 12961
4365 95609
4365 68201
4365 104221
4365 196658
4365 137387
4365 37428
4365 50910
4371 13147
4375 139922
4375 245765
4375 220976
4375 123417
4375 259849
4377 46051
4377 42097
4377 180700
4377 433648
4378 48057
4378 213232
4378 42077
4378 17883
4378 62480
4378 7152
4378 276065
4378 35845
4378 15794
4378 326423
4378 50968
4378 83518
4378 194848
4378 260981
4378 35813
4378 169357
4378 219552
4378 4514
4378 41289
4378 191006
4380 17388
4380 55032
4380 5500
4380 311633
4380 43458
4380 99934
4380 103988
4380 39582
4380 27959
4380 57597
4380 42329
4380 129173
4380 104517
4380 9389
4380 86127
4380 127997
4380 187282
4380 351056
4380 160673
4380 19265
4380 149279
4380 165867
4380 344770
266531 196435
266533 14454
4392 86581
4392 100289
266538 26178
266538 5018
266538 25007
266545 167599
4418 18580
4424 118631
4424 373551
4424 429643
4424 192431
4424 322962
4424 224628
4425 185040
4429 96385
4429 154785
4430 11443
4437 198726
4437 373958
4440 18826
266588 210017
4444 434781
4444 427917
4444 427316
4444 57051
4444 356501
4444 269647
4444 198992
4444 225182
4444 279394
4444 229542
4444 432220
4444 206861
4444 246793
4444 209048
4444 401516
4444 336399
4444 421191
4444 397659
4444 171732
4444 246920
4444 277984
4444 327669
4444 276581
4444 418625
4444 400080
4444 400185
4444 251477
4444 364071
4444 416678
4444 440871
4444 250810
4444 407741
4444 351705
4444 427456
4444 279015
4444 412558
4444 424547
4444 409651
4444 259781
4444 379109
4444 245747
4444 268431
4444 436820
4444 365968
4444 273577
4444 201959
4444 255037
4444 403729
4444 352719
4444 417183
4444 432714
4444 404744
4444 432759
4444 435499
4444 419955
4444 356945
4444 398001
4444 376211
4444 425510
4444 294024
4444 281584
266591 326932
266601 316455
4463 8216
4463 7741
266615 13383
266615 7437
4476 5335
4480 17317
266631 69891
4497 87586
266640 40279
4499 13661
4499 12069
266645 24873
4507 22422
4507 83082
4507 56304
4507 82434
4507 82437
4507 34019
4514 18915
4514 41149
4514 7122
4514 4562
4514 13890
4514 47124
4515 149711
4515 326425
4515 79383
266661 8208
4519 17871
4525 148687
4526 363319
4526 210068
4526 338469
4526 330428
4526 212564
4526 278815
4526 229688
4526 439661
4526 301300
4526 254711
4526 382236
4526 335089
4526 354729
4526 235133
4526 220179
4526 274138
4526 236219
4526 410911
4526 306545
4526 419030
4526 117559
4526 392630
4526 415615
4526 380188
4526 257927
4526 321543
4526 315205
4526 443197
4526 375975
4526 320050
4526 221987
4526 212761
4526 405725
4526 422715
4526 266834
4526 219435
4526 200492
4526 388453
4526 276437
4526 394029
4526 102264
4526 452008
4526 210701
4526 272665
4526 257648
4526 434466
4526 346525
4526 335819
4526 253012
4526 346496
4526 283521
4526 335516
4526 410692
4526 255002
4526 373656
4526 233340
4526 14895
4526 387691
4526 388235
4526 348658
4526 391635
4526 392214
4526 233372
4526 222945
4526 339834
4526 170563
4526 222837
4526 382053
4526 450349
4526 408180
4526 214049
4526 439312
4526 378666
4526 379795
4526 439197
4526 87684
4526 242697
4526 234557
4526 382033
4526 225852
4526 357938
4526 210713
4526 401396
4526 418118
4526 128342
4526 409480
4526 232139
4526 217576
4526 247947
4526 221340
4526 455378
4526 202876
4526 453745
4526 408378
4526 219367
4526 237748
4526 423328
4526 335794
4526 408783
4526 210775
4526 403749
4526 307121
4526 408979
4526 209723
4526 228858
4526 382545
4526 441640
4526 427500
4526 272136
4526 444290
4526 378624
4526 306229
4526 243891
4526 374634
4526 352607
4526 436582
4526 223212
4526 330861
4526 445651
4526 213244
4526 148180
4526 140295
4526 156476
4526 231805
4526 440578
4526 333847
4526 50886
4526 237515
4526 125463
4526 197834
4526 347107
4526 435819
4526 253010
4526 420289
4526 301585
4526 225481
4526 210255
4526 343081
4526 218555
4526 209993
4526 399174
4526 321955
4526 356452
4526 207356
4526 295258
4526 219426
4526 295262
4526 420352
4526 451199
4526 394648
4526 200795
4526 450955
4526 281969
4526 450053
4526 366653
4526 211370
4526 244831
4526 227660
4526 405888
4526 430112
4526 321272
4526 158573
4526 416233
4526 427041
4526 203977
4526 418046
4527 132647
266684 5335
266689 26677
266696 14454
266705 49750
4561 90752
4561 8126
4561 7134
4561 22365
4561 148224
4564 33986
4564 76422
4564 258530
4564 67451
4564 65887
4563 7134
4576 15521
4576 145188
4576 71734
4576 55975
266723 11714
4582 65644
266735 14454
266737 14454
4602 158742
4602 326642
4605 327928
4605 326951
4605 64940
4619 5123
4619 5122
4622 6204
266767 96253
4628 152093
4628 163764
4628 143089
4629 14942
4629 115284
4629 266819
4629 237417
4629 12629
4629 30635
4629 39549
4629 235796
4629 77096
4629 182325
4629 364737
4629 353467
4629 56346
4637 364608
266781 7675
266789 6969
4647 24676
4648 115042
266795 28462
266814 246702
266814 49179
266814 51715
266814 47821
266814 16533
266814 55965
4673 17966
4675 63055
266820 16801
266822 14454
266822 266823
4687 135892
266833 214267
266836 14454
4696 131985
4696 20136
4696 63103
4696 209426
266851 450711
266851 199877
266856 122469
4712 169545
4712 116549
4713 7501
4717 143267
4717 133581
4717 291750
4717 185800
4717 375590
4717 15665
4717 34204
4717 23154
4717 49304
4718 63931
4718 17881
4718 67504
4718 11584
4730 440568
4730 205399
4730 441601
4730 455126
4730 377556
4730 420214
4730 112117
4730 247779
4730 239964
4730 409237
4730 385185
4730 216690
4730 117273
4730 88383
4730 140295
4730 291116
4730 402756
4730 156005
4730 247249
4730 243501
4730 298995
4730 342210
4730 120630
4730 208407
4730 213164
4730 259775
4730 404107
4730 40071
4730 299850
4730 60291
4730 271417
4730 238756
4730 184874
4730 157180
4730 447695
4730 246174
4730 7257
4730 415423
4730 220169
4730 150698
4730 197349
4730 418755
4730 339780
4730 208547
4730 399212
4730 344120
4730 419322
4730 445837
4730 59010
4730 94191
4730 13898
4730 77848
4730 230280
4730 430576
4730 433927
4730 289241
4730 290053
4730 120952
4730 285627
4730 197815
4730 413224
4730 424842
4730 232497
4730 211803
4730 162554
4730 401098
4730 177078
4730 230470
4730 135059
4730 338214
4730 274882
4730 250056
4730 367633
4730 183633
4730 447292
4730 443861
4730 147260
4730 346604
4730 344168
4730 281242
4730 276017
4730 135060
4730 255849
4730 391727
4730 388700
4730 305309
4730 171010
4730 114244
4730 268777
4730 151290
4730 430416
4730 446105
266877 19426
4735 10667
266880 12510
266882 12375
4738 7170
4738 7274
266888 22475
4753 23854
266901 7698
4757 12148
266909 14615
266911 14454
4773 68278
4767 25339
4780 25360
266949 20103
4813 25339
4813 25335
4813 25346
4813 92901
266959 86822
4821 332837
4821 90480
4821 239921
4821 42685
4821 162863
4821 149197
4821 332279
4821 389165
4821 224067
4821 409176
4821 240523
4821 389260
4821 37075
4821 180628
4821 337013
4821 406549
4821 91870
4821 212504
4821 403662
4821 42858
4821 246774
4821 229673
4821 452238
4821 322325
4821 355170
4821 363779
4821 42832
4821 321890
4821 434687
4821 308140
4821 280327
4821 357756
4821 358035
4821 171558
4821 34174
4821 440813
4821 299271
4821 298281
4826 93607
4827 99369
4830 34555
4830 333221
4833 448771
4847 9964
4848 62270
4866 35113
4866 63804
4869 51683
4871 14685
4871 66680
267016 27738
267017 30324
4873 75190
4873 14557
4873 440684
4875 90979
4875 40258
4875 194405
4875 36079
4875 275154
4875 203521
4880 16458
4880 355553
4880 39496
4881 167661
4881 24161
267027 443942
4885 146777
4885 53334
4885 91347
4888 334636
4888 274522
4888 385479
4888 116439
4888 150924
4888 309230
4888 109472
4888 442043
4888 419581
4888 414127
4888 198530
4888 69517
4888 67071
4888 379088
4888 364252
4888 272789
4888 270132
4888 166250
4888 71716
4888 339531
4888 273535
4888 340374
4888 122648
4888 292740
4888 431397
4888 290563
4888 363294
4888 165782
4888 338746
4888 367300
4888 63741
4888 278218
4888 356475
4888 337459
4888 448326
4888 68821
4888 268785
4888 337857
4888 245509
4888 39390
4888 446393
4888 376601
4888 299519
4888 381616
4888 362320
4888 294568
4888 225454
4888 303525
4888 343028
4888 383186
4888 135475
4888 172308
4888 90322
4888 186803
4888 256265
4888 140867
4888 381514
4888 378448
4888 417856
4888 124901
4888 411936
4888 267452
4888 322185
4888 175653
4888 359732
4888 400356
4888 179790
4888 296003
4888 438643
4888 118027
4888 191239
4888 437410
4888 322216
4888 259179
4888 85449
4888 39403
4888 357382
267032 32226
4890 4910
4896 107008
4910 24820
4910 80851
4910 136072
4910 319455
4910 61005
4910 120814
4910 343525
4910 35562
4910 77585
4910 395563
4910 381760
4910 68758
4910 61574
4910 311302
4910 152620
4910 64181
4910 375789
4910 115411
4910 146604
4910 119477
4910 170258
4910 327574
4910 304499
4910 49172
4910 360119
4910 317834
4910 251204
4910 320111
4910 177848
4910 14565
4910 59987
4910 178273
4910 123889
4910 124676
4910 215295
4910 102474
4910 179986
4910 394710
4910 120269
4910 99166
4910 406509
4910 27753
4910 21005
4910 391966
4910 56449
4910 327619
4910 53372
4910 207025
4910 74191
4914 116526
4914 37545
4914 118525
267058 11792
4917 4937
4917 255268
4918 178454
4918 26056
4918 112521
4921 12895
4919 12842
4928 7449
267078 99369
267080 9964
4937 372913
4938 7114
267085 19913
267085 267087
4946 99369
4948 99369
4949 82073
4949 93570
4949 277648
4949 444240
4949 75072
4949 179708
4949 399508
4947 7274
267108 36371
4970 8512
4974 16309
4974 49084
4974 7436
4974 8451
4992 7259
267138 11792
267138 22849
4999 78191
5001 11555
5006 210613
5006 174233
5006 63149
5006 260061
5006 150410
5006 96758
5006 189997
5006 15986
5006 5410
5006 45859
5006 194849
5006 291041
5006 122806
5006 5425
5006 201107
5011 140645
5011 163857
5011 40439
5011 112410
5011 12183
5011 216407
5011 6080
5011 385763
5011 74573
5011 233286
5011 214723
5011 399224
5011 192582
5011 132182
5011 43168
5011 210156
5011 178712
5011 229837
5011 162982
5011 190574
5011 446808
5011 425317
5011 135645
5011 322462
5011 216327
5011 129351
5018 25997
5018 47438
5018 379446
5018 181581
5018 180244
5019 12156
5019 81744
5019 159617
5026 31255
267171 14549
5037 95702
5038 141087
5038 62442
5038 24883
5038 145887
5038 385864
5038 414913
5038 343115
5038 90834
5038 138185
5038 215511
5038 138021
5038 39422
5038 245489
5038 160072
5038 289870
5042 14454
5051 84181
267202 168809
5074 46966
5074 174487
267219 132404
267223 34870
267223 7599
267225 16456
5082 5131
5082 153746
5084 13393
5086 39464
267235 267236
5092 70319
5092 14454
267236 304330
267241 267242
5102 150690
5102 247671
5102 291095
5102 359376
5102 340712
5102 191827
5102 29038
5102 430398
5102 25236
5102 116230
5102 195064
5102 159660
5102 295455
5102 421469
5102 106353
267247 7627
5115 184052
5115 228160
5123 88213
5123 110903
5123 23205
5123 50643
5123 12928
5123 89545
5123 17460
5123 247874
5123 161691
5123 21646
5123 170525
5123 99293
5123 165461
5123 63931
5123 175691
5123 13234
5123 126310
5123 150890
5123 16801
5123 126308
5123 29024
5123 16051
5123 134173
5123 78034
267269 19870
267269 47666
267269 69625
267269 132404
267269 13798
267269 374068
5131 94909
5131 5500
5131 209079
5140 7279
267293 267294
267294 395467
5155 338127
5155 91897
5155 25014
5155 133133
5155 106209
5155 43723
5155 180218
5155 159057
5155 203863
5155 117181
5155 68256
5155 65572
5160 55242
5160 64225
5160 69496
5160 239855
5160 32341
5160 184168
5160 191870
5160 270854
5160 23556
5160 440981
5160 74372
5160 137456
5160 252975
5160 218643
5160 174859
5160 167942
5160 51181
5160 373319
5160 81405
5160 99620
5160 71117
5160 35950
5160 296507
5160 5182
5160 12899
5160 425497
5163 50286
5163 5193
267308 28063
267311 111624
5170 11463
267315 402266
267317 76165
267317 186866
5172 15740
5175 130586
5175 5169
5175 16754
267320 38903
267318 44183
5182 5380
5182 5193
5191 15030
5193 296851
5193 285185
5193 281833
5193 446606
5193 153938
5193 440304
5193 403512
5193 233826
5193 158505
5193 329518
5193 175273
5193 239076
5193 292420
5193 359694
5193 441104
5193 148419
5193 159332
5193 251599
5193 95783
5193 407353
5193 374301
5193 95702
5193 444716
5193 227546
5193 13516
5193 364277
5193 153710
5193 333553
5193 194381
5193 28205
5193 256292
5193 48408
5193 239552
5193 428983
5193 133654
5193 389236
5193 248611
5193 216369
5193 400686
5193 452892
5193 442912
5193 275842
5193 17237
5193 278205
5193 76134
5193 86501
5193 99786
5193 137984
5193 233404
5193 148436
5193 17284
5193 434675
5193 234511
5193 258682
5193 349755
5193 229447
5193 82373
5193 191812
5193 162680
5193 104567
5193 312645
5193 440512
5193 437518
5193 295879
5193 394025
5193 445297
5193 350052
5193 441742
5193 250631
5193 120057
5193 80101
5193 130470
5193 218613
5193 258422
5193 328938
5193 272753
5193 444742
5193 58838
5193 51640
5193 50948
5193 50976
5193 259849
5193 424757
5193 90441
5193 422762
5193 380208
5193 275157
5193 343295
5193 25738
5193 272272
5193 131261
5193 88322
5193 48641
5193 48812
5193 242136
5193 424728
5193 318662
5193 260531
5193 425179
5193 386161
5193 175802
5193 260603
5193 307638
5193 413494
5193 271085
5193 194580
5193 185719
5193 399495
5193 319167
5193 368060
5193 90432
5193 435676
5193 189661
5193 51334
5193 426554
5193 194170
5193 433004
5193 374019
5193 391764
5193 348192
5193 131267
5193 74613
5193 325434
5193 278586
5193 244005
5193 452427
5193 81602
5193 243007
5193 421763
5193 128626
5193 220822
5193 279791
5193 213950
5193 319735
5193 167942
5193 385134
5193 213042
5193 74928
5193 138025
5193 295811
5193 160541
5193 378310
5193 280790
5193 180496
5193 175063
5193 305744
5193 395880
5193 161085
5193 226536
5193 424337
5193 440669
5193 330498
5193 231367
5193 409699
5193 305962
5193 419025
5193 236779
5193 414976
5193 422258
5193 124520
5193 60268
5193 428791
5193 74587
5193 261259
5193 431765
5193 9489
5193 326642
5193 319193
5193 210603
5193 136607
5193 216155
5193 307562
5193 206081
5193 285820
5193 221491
5193 93694
5193 156564
5193 53506
5193 373099
5193 203785
5193 278384
5193 340309
5193 77323
5193 134978
5193 187027
5193 422375
5193 212447
5193 358667
5194 9863
267342 7627
5198 174859
5198 59646
5198 73359
5202 77227
267349 8942
5206 109379
5206 279646
5206 5214
5206 361987
5206 302514
5206 235484
5206 307960
5206 195648
5206 221485
5206 268040
5206 276998
5206 220999
5206 77278
5206 373903
5206 167846
5206 130823
5206 125410
5206 43701
5206 127982
5206 125406
5206 345141
5206 77211
5207 228012
5207 283888
5207 224862
5207 80209
5207 131244
5207 346994
5207 279646
5207 193304
5207 77207
5207 347383
5207 300843
5207 239242
5207 77278
5207 28588
5207 77279
5207 109399
5207 72217
5207 46371
5207 110494
5207 77229
5207 43707
5207 125406
5207 152304
5207 28592
5207 438665
5207 448777
5210 188227
5228 154125
267371 126915
267378 294416
5243 14454
5245 194669
5245 37234
5245 123966
5245 412928
5245 211314
5245 258974
5245 299085
5245 305146
5245 332024
5245 396537
5245 329864
5245 179585
5245 121084
5245 80101
5245 90673
5245 354216
5245 282071
5245 278995
5245 149644
5245 207715
5245 245696
5245 65899
5245 235910
5245 108051
5245 133047
5245 337370
5245 295042
5245 139056
5245 381885
5245 429363
5245 131877
5245 202019
5245 131398
5245 359836
5245 420241
5245 10338
5245 245607
5245 269522
5245 179621
5245 167737
5245 298678
5245 396187
5245 394332
5245 235875
5245 396076
5245 70459
5245 375908
5245 166692
5245 435147
5245 310804
5245 126115
5245 12779
5245 235716
5245 433611
5245 29499
5245 430716
5245 184082
5245 179963
5245 293802
5245 341698
5245 134406
5245 182425
5245 452155
5245 255466
5245 145753
5245 195206
5245 307191
5245 419332
5245 291081
5245 289388
5245 422552
5245 64190
5245 416610
5245 214105
5245 435242
5245 71729
5245 248884
5245 166658
5245 80113
5245 284225
5245 441454
5245 381644
5245 215210
5245 237751
5245 145050
5245 247096
5245 114839
5245 391171
5245 326499
5245 345092
5245 100909
5245 307659
5245 382295
5245 81904
5245 309032
5245 50204
5245 454613
5245 257209
5245 164236
5245 310104
5245 242875
5245 183827
5245 299980
5245 129745
5245 126819
5245 267493
5245 37609
5245 191206
5245 436579
5245 384203
5245 430725
5245 302287
5245 57668
5245 414201
5245 312543
5245 306361
5245 379636
5245 403493
5245 187221
5245 335375
5245 321904
5245 281950
5245 159186
5245 372671
5245 389489
5245 6255
5245 112612
5245 307768
5245 384744
5245 281747
5245 344750
5245 455145
5245 252548
5245 190103
5245 418476
5245 286731
5245 165589
5245 161631
5245 17655
5245 364581
5245 21784
5245 202156
5245 326051
5245 314376
5245 397237
5245 283693
5245 449258
5245 357437
5245 310768
5245 174464
5245 424762
5245 175985
5245 120329
5245 219140
5245 166169
5245 428515
5245 143710
5245 86961
5245 197551
5245 425630
5245 153621
5245 23131
5245 281077
5245 286936
5245 397310
5245 444425
5245 105945
5245 40886
5245 403426
5245 372500
5245 94699
5245 373529
5245 336752
5245 247567
5245 280813
5245 400719
5245 261354
5245 191049
5245 75459
5245 451830
5245 124249
5245 367946
5245 313837
5245 247262
5245 344675
5245 332505
5245 381245
5245 412564
5245 120656
5245 143366
5245 252129
5245 412312
5245 388907
5245 180412
5245 38703
5245 247276
5245 98821
5245 257513
5245 208205
5245 231991
5245 165652
5245 143706
5245 234954
5245 147954
5245 448030
5245 205168
5245 32775
5245 239100
5245 417487
5245 143589
5245 94716
5245 292590
5245 182981
5245 151383
5245 106209
5245 79174
5245 444073
5245 70807
5245 317793
5245 315344
5245 213867
5245 280783
5245 158683
5245 455448
5245 364983
5245 209228
5245 134973
5245 245097
5245 381004
5245 242293
5245 179160
5245 230539
5245 436964
5245 281514
5245 448520
5245 339233
5245 116966
5245 418777
5245 130761
5245 432157
5245 116648
5245 86319
5245 267593
5245 159410
5245 41450
5245 362628
5245 251589
5245 444936
5245 191289
5245 400682
5245 413498
5245 165303
5245 274429
5245 177743
5245 361669
5245 256045
5245 346258
5245 22452
5245 302375
5245 432077
5245 379759
5245 435023
5245 277715
5245 117189
5245 320209
5245 155612
5245 145795
5245 415426
5245 241565
5245 171962
5245 134000
5245 137648
5245 259254
5245 202153
5245 204358
5245 127534
5245 251882
5245 438471
5245 347704
5245 174688
5245 194394
5245 131475
5245 168668
5245 323271
5245 250111
5245 428159
5245 114287
5245 32452
5245 44166
5245 275969
5245 400376
5245 308739
5245 393007
5245 148638
5245 131237
5245 417140
5245 107819
5245 308065
5245 243664
5245 284162
5245 75912
5249 62542
5253 37952
5253 82566
5253 117215
5253 356515
5253 34188
5253 9111
267415 430129
5284 9964
5284 11714
267429 408249
5288 420998
5288 113278
267432 13633
5297 6156
267451 14584
267465 60493
5328 14727
5328 7274
5335 282031
5335 74358
5335 205152
5335 272891
5335 87065
5335 194143
5335 9249
5335 245920
5335 223796
5335 183009
5335 16203
5335 344235
5335 98749
5335 226825
5335 133433
5335 163926
5335 321778
5335 142451
5335 209973
5335 204892
5335 6291
5335 236494
5335 208856
5335 175204
5335 358475
5335 294953
5335 69266
5335 236329
5335 356832
5335 9250
5335 63093
5335 449899
5335 199121
5335 363088
5335 73633
5335 75055
5335 130555
5335 133184
5335 345615
5335 292736
5335 71430
5335 42669
5335 296999
5335 129947
5335 150723
5335 131297
5335 180617
5335 258985
5335 174512
5335 206652
5335 85171
5335 235984
5335 204533
5335 132735
5335 181393
5335 355740
5335 99558
5335 288970
5342 99441
5344 35999
267493 26551
5367 14891
267513 8598
267514 8598
5373 35999
267524 301366
5380 183902
5380 47525
5380 56880
5380 102196
5380 148750
5380 145952
5380 195220
5380 446910
5380 287525
5380 232556
5380 39092
5380 67114
5380 38937
5380 204514
5388 37737
5395 148860
5397 44612
5399 13633
267543 10121
5400 19556
5406 14454
5406 33936
5406 11714
5406 180606
5406 39464
5406 146459
5414 12928
5414 233019
5414 41808
5416 7274
267562 198048
5418 288354
5418 94107
5422 18320
5423 223806
267575 14454
5431 27864
5438 222457
5438 12120
5438 134181
5438 342718
5438 275092
5438 98063
5438 178723
5438 48614
5438 8462
5438 85989
5438 141303
5438 147717
5438 136729
5438 57147
5438 150284
5438 136425
5438 58352
5438 47933
5438 32079
5438 199062
5438 185952
5438 168016
5438 13363
5438 179661
5438 240834
5438 185607
5438 212664
5438 42913
5438 442292
5438 203225
5438 85669
5438 150386
5438 169809
5438 16418
5438 10502
5438 324473
5438 49412
5438 101209
5438 237356
5438 196479
5438 167890
5438 141739
5438 146605
5438 18176
5438 199074
5438 152142
5438 194072
5438 256972
5438 419400
5438 147228
5438 187474
5438 258454
5438 409329
5438 252757
5438 68061
5438 198167
5438 39993
5439 48835
5439 194173
267587 267590
267603 28586
5461 153995
5463 149794
5477 278440
5483 13250
5489 389984
5489 244905
5489 323941
5489 358436
5498 385141
5498 250076
5498 119644
5500 170376
5500 113523
5500 339526
5500 18654
5500 70329
5500 7279
5500 190282
5500 166787
5500 372897
5500 173222
5500 32257
5500 156001
5500 375735
5500 93459
5500 395064
267645 22407
267646 19426
267650 149294
5508 260094
5508 326479
5508 255101
5508 300356
5508 141627
5508 425768
5508 276793
5508 165974
5508 134620
5508 133384
5508 12558
5508 8839
5508 43210
5508 233404
5508 295661
5508 8423
5508 7439
5508 278150
5508 74348
5508 106646
5508 293939
5508 249839
5508 194954
5508 440750
5508 9129
5508 286573
5508 139623
5508 178839
5508 214658
5508 156928
5508 171586
5508 9512
5508 198317
5508 93275
5508 281242
5508 278928
5508 149824
5508 47951
5508 111060
5508 155237
5513 238454
5514 201610
267665 308994
267665 308993
267665 308996
5521 355593
5528 15407
5541 111703
267688 22355
267688 14454
267694 69483
5552 5942
267699 55935
5562 120559
267707 9964
267708 24898
267717 225909
267718 389750
267718 439525
267718 358631
267718 328030
267718 393233
5578 13798
267726 57022
5586 13383
5595 13798
5603 165824
267752 215225
267778 29225
5634 11998
5634 35674
267780 248566
5640 14454
5640 27738
5640 46315
5640 120568
267786 6408
5664 116924
5680 105339
5681 152085
5681 446039
5681 187640
5681 195490
5681 107691
267823 7937
5683 120512
5693 5775
5696 39599
267847 12510
5704 13798
5704 13766
267856 284938
5716 89784
5716 212634
5716 289314
5716 137397
5716 152436
5716 261799
5716 103441
5716 187496
5716 375234
5716 334657
5716 103718
5716 154367
5716 346454
5716 86258
5716 57042
5716 339197
5716 428477
5716 425817
5716 174831
5716 260014
5716 344667
5716 16932
5716 184609
5716 312231
5716 271983
5716 454692
5716 155681
5716 179146
5716 58392
5716 242187
5716 272190
5716 436155
5716 227234
5716 305506
5716 334510
5716 108758
5716 253422
5716 166658
5716 162855
5716 20400
5716 104732
5716 413123
5716 361249
5716 355797
5716 424626
5716 45137
5716 234772
5716 436854
5716 134766
5716 17621
5716 215258
5716 399657
5720 30887
5721 8942
267873 67397
267874 14454
5734 199543
267879 68278
267895 68278
267896 68278
267898 252174
267900 14454
5762 10694
267908 14454
5773 84838
267926 6969
267928 7590
267929 17129
267931 16527
5787 76725
5795 429775
5795 70982
5795 167258
5795 339088
5795 308684
5795 348828
5795 172142
5795 415243
5795 254427
5795 101223
5795 120233
5795 288200
5795 6214
5795 381328
5795 8526
5795 113562
5795 181760
5795 160110
5795 212472
5795 421570
5795 142131
5795 137160
5795 105492
5795 242180
5795 354070
5795 9932
5795 88901
5795 180291
5795 426475
5795 163072
5795 414294
5795 47868
5795 239975
5795 162047
5795 6026
5795 214661
5795 302411
5795 391853
5795 164764
5795 51129
5795 137161
5795 339380
5795 430468
5795 380630
5795 223716
5795 99786
5795 407006
5795 90419
5795 428222
5795 138780
5795 129258
5795 68194
267940 14596
5799 115997
5802 176232
5802 6547
5810 46797
5810 17333
5810 7274
5810 16594
5810 53178
5810 23293
5810 78757
5810 40453
267959 24750
267961 267962
5819 24750
267969 41329
5830 342448
5841 17518
267993 322103
268004 279656
5864 17527
268017 13249
268023 52387
5880 7344
268032 57159
268033 16527
5890 97906
5890 37624
5890 17518
5890 17762
5891 77788
5891 81181
268040 10964
5897 25966
268049 362807
268055 39959
268061 16313
5920 162675
5931 6057
268078 7937
5933 83102
268082 83455
5950 21498
268097 174141
268103 74014
5987 22399
268133 12928
5990 98101
6002 187644
6002 135339
6002 191108
6002 226154
6002 213228
268149 43900
6005 193220
6016 213228
6017 6545
6019 165992
6019 9492
6023 104978
6024 22408
268171 381988
268183 386229
6044 179937
6054 191108
6060 221822
268207 120347
268206 120347
6070 60257
6071 36708
6069 278140
6069 436063
6069 55452
6069 58483
6069 62330
6080 305744
6080 51181
6080 201991
6080 121058
6080 251665
6080 107231
6080 232319
6080 15801
6080 296008
6080 56333
6080 11038
6080 15210
6080 176820
6080 156174
6080 19276
6080 74594
6080 140559
6080 88707
268227 16460
6088 68140
268235 268236
6094 89364
268239 14454
268242 16460
6102 14454
268247 28475
6117 193097
6118 196490
6118 114261
6118 139258
268263 60350
6119 91767
6123 14454
6135 92994
268282 68278
6148 271816
6148 160096
6148 449711
6148 17465
6148 347364
6148 35621
6148 76310
6148 436235
6148 398475
6148 158966
6148 431253
6148 256294
6148 17109
6148 287479
6148 183337
6148 84628
6148 251283
6148 433943
6148 402785
6148 405664
6148 310662
6148 430305
6160 8208
268312 42927
6175 14893
6180 198411
6193 13798
6201 12687
6207 48282
268363 274509
6244 258537
6244 41808
6273 8009
6273 168252
268421 113315
268422 14549
268419 77352
6322 11714
268467 14454
6327 50733
6328 295403
6334 63931
6338 47245
6338 18729
268484 10460
6343 376208
6374 9672
6374 97874
6374 447766
268518 59465
268531 60493
268540 23795
6408 359755
6408 141267
6408 306652
6408 236007
6408 184744
6408 110467
6408 304605
6408 286863
6408 178976
6408 170487
6406 281242
6406 201645
6406 12604
6411 22788
268557 34178
6414 67251
6417 50427
268564 32972
6423 218581
6423 112757
6423 383066
6423 10924
6423 299984
268570 276927
6435 19870
6435 12755
6435 26073
268582 433454
6446 280053
6450 11710
268595 154462
268598 24703
6455 90287
6455 29342
268601 68278
6458 37000
6464 234047
268639 25094
6496 207978
6496 202826
6496 170743
6496 447943
6496 13910
6496 138198
6496 333122
6496 9941
6496 268835
6496 244763
6496 428176
6496 73151
6496 77689
6496 189347
6496 132588
6496 260332
6496 30640
6496 117008
6496 393062
6496 155492
268644 129154
268645 185072
6503 21356
6503 21155
6503 6547
6507 14788
268653 383012
268669 14454
268675 268676
268676 42182
6534 374452
6534 302168
6534 117887
268680 10232
6536 89784
6539 23493
6540 9131
6540 74928
6540 35730
6540 21510
6558 15252
6558 135871
6571 6577
268719 121105
6584 66164
6584 395636
6586 123223
268736 9964
6596 138989
6596 138988
6596 170161
6598 14454
6603 19191
6604 22245
6604 7038
6604 15711
6604 7833
268750 131624
6611 98478
6625 16081
6627 17731
268785 109472
6643 99907
6643 48281
268788 67032
6646 6662
6646 166330
6649 344832
6649 93303
6650 324984
6650 300356
6653 356832
6658 165974
6658 164574
6658 14725
6658 39074
6658 6671
6658 141625
6658 6689
6659 424457
6659 217325
6659 140493
6659 318138
6659 82817
6659 428284
6659 270638
6659 428850
6662 141627
6662 6700
268813 13798
6671 270927
6671 6682
6671 348962
6671 39076
6671 165977
6671 6672
6672 39074
6672 258985
6674 141606
6674 133434
6674 115074
6674 325396
6674 168568
6674 346749
6674 141614
6674 317315
6674 93297
6674 93287
6678 73934
6678 133434
6679 343692
6679 300987
6679 102198
6679 334240
6679 204517
6679 217319
6687 141853
6687 210878
6687 93299
6687 95846
6687 163931
6689 137205
6692 93325
6692 130622
6694 93275
6694 438694
6694 317385
6694 355298
6694 439673
6694 365548
6694 9586
6694 91990
6694 203880
6694 325698
6694 354545
6694 343870
6694 385791
6695 93297
6695 201610
6695 193643
6695 137203
6695 93299
6695 224875
6695 95846
6695 185422
268849 14454
6705 121293
6707 39028
6711 39096
6711 251674
6711 315672
6711 349222
6711 150634
6711 358096
6711 276298
6711 196350
6712 93316
6712 95845
6712 93268
6723 28977
268884 36115
6753 45843
6753 10853
6752 212671
6752 14185
6752 175612
6754 13798
6763 19278
6764 77165
6767 20550
268925 6969
6786 23004
6786 14454
6791 26367
6793 144664
6793 58361
6793 208419
6793 421999
6793 243127
6793 113146
6793 276256
6812 7257
6812 28417
6812 44328
6813 16038
6814 128873
6819 7956
6819 179935
6824 9964
6824 122557
6824 16216
6824 10708
6826 66637
6836 65202
6848 10855
6855 46915
6855 129638
6855 226366
268999 105077
6860 322725
269009 23761
6866 179937
6873 128341
6873 228656
6873 234487
269022 343798
6882 11024
269029 7274
269031 14454
269039 217837
6900 70147
269063 112050
269064 24088
269065 342271
269067 12891
6926 102075
6928 38515
6928 31298
6928 30486
6928 326590
6929 224006
6929 328106
6929 28067
6929 314753
6929 63677
6929 34232
6929 289487
6929 272042
6929 110752
6929 317506
6929 90979
6929 428138
6929 64176
6929 233853
6929 286172
6929 54147
6929 41478
6929 194201
6929 250175
6929 98484
6929 183598
6929 422767
6929 105814
6929 78784
6929 41949
6929 119357
6929 145972
6929 328388
6929 136629
6929 300796
6929 92497
6929 423059
6929 92363
6929 117882
6929 68758
6929 416075
6929 304362
6929 270161
6929 293374
6929 357830
6929 377234
6929 142394
6929 136343
6929 320092
6930 31044
6930 103802
6930 44176
6930 157666
6932 112875
6940 60041
6940 31857
6940 43996
6940 98639
6940 134067
6940 52329
6940 334930
6940 37115
6940 373130
6940 101133
6940 118287
6940 394689
6940 208716
6940 386806
6940 102342
6940 297144
6940 420141
6940 89201
6940 248409
6940 381430
6940 101845
6940 160931
6940 59905
6940 325015
6940 356133
6940 120131
6940 369576
6940 19535
6940 157176
6940 16528
6940 368577
6940 61002
6940 329141
6940 35045
6940 116686
6940 312247
6940 129994
6940 115111
6940 99053
6940 254393
6940 133978
6940 347874
6940 227717
6940 278548
6940 155672
6940 382984
6940 33719
6940 394392
6940 92125
6940 105985
6940 102511
6940 117882
6940 439409
6940 116137
6940 71485
6940 80852
6940 116284
6940 51816
6940 273748
6940 234266
6940 357538
6940 90968
6940 394353
6940 136106
6940 310396
6940 147466
6940 144380
6940 62576
6940 396114
6940 124086
6940 8864
6940 34300
6940 274949
6940 34908
6940 113812
6940 102227
6940 413884
6940 342864
6940 432242
6940 345671
6940 183687
6940 138412
6940 170205
6940 42251
6940 286172
6940 131102
6940 58547
6940 57473
6940 208641
6940 125313
6940 65227
6940 211730
6940 321619
6940 178396
6940 393039
6940 80612
6940 63393
6940 304012
6940 33696
6940 65014
6940 97227
6940 49640
6940 90976
6940 66279
6940 62160
6940 352960
6940 269816
6940 101981
6940 292660
6940 232315
6940 318875
6940 145733
6940 32972
6940 303951
6940 131269
6940 134066
6940 282165
6940 102300
6940 298696
6940 64729
6940 151189
6940 53598
6940 174112
6940 28462
6940 62195
6940 381865
6940 47015
6940 186411
6940 102475
6940 279049
6940 62170
6940 43988
6940 100316
6940 254251
6940 354675
6940 105000
6940 277535
6940 98636
6940 64585
6940 123917
6940 63793
6940 406830
6940 338273
6940 65250
6940 97979
6940 102308
6940 61438
6940 90765
6940 61742
6940 111005
6940 28107
6940 242550
6940 159525
6940 404617
6940 383275
6940 412776
6940 261373
6940 31082
6940 16523
6940 95221
6940 246110
6940 322125
6940 335915
6940 320498
6940 50311
6940 300080
6940 61900
6940 20920
6940 96667
6940 51682
6940 205037
6940 50349
6940 31325
6940 37484
6940 328165
6940 318483
6940 69127
6940 148526
6940 306347
6940 361755
6940 72854
6940 45003
6940 103324
6940 157707
6940 156017
6940 16514
6940 243571
6940 396147
6940 34708
6940 99596
6940 320360
6940 35288
6940 57528
6940 119214
6940 235473
6940 123462
6940 53491
6940 439520
6940 77584
6940 444244
6940 95230
6940 22690
6940 80251
6940 211741
6940 76365
6940 428797
6940 131538
6940 69891
6940 171541
6940 239524
6940 106755
6940 49179
6940 34236
6940 344696
6940 324449
6940 151922
6940 325242
6940 57536
6940 254031
6940 239425
6940 187280
6940 171997
6940 281677
6940 33284
6940 161593
6940 366335
6940 89813
6940 370420
6940 86973
6940 435750
6940 30639
6940 346956
6940 401085
6940 427394
6940 23293
6940 65155
6940 112484
6940 106819
6940 35245
6940 57265
6940 95835
6940 105171
6940 50330
6940 249208
6940 35374
6940 288841
6940 24821
6940 50319
6940 158698
6940 116631
6940 140042
6940 286432
6940 99992
6940 438341
6940 337166
6940 287935
6940 50233
6940 331912
6940 14577
6940 225539
6940 82686
6940 101109
6940 402069
6940 179384
6940 106995
6940 58181
6940 232501
6940 407651
6940 53281
6940 18443
6940 75266
6940 104057
6940 183584
6940 156057
6940 34278
6940 43961
6940 19919
6940 148232
6940 82493
6940 110442
6940 34963
6940 436738
6940 141716
6940 106110
6940 177825
6940 99032
6940 37123
6940 121389
6940 82318
6940 377707
6940 99145
6940 116283
6940 404497
6940 271671
6940 72820
6940 93596
6940 310651
6940 79030
6940 330563
6940 377888
6940 61430
6940 153854
6940 393956
6940 382070
6940 46581
6940 401389
6940 113870
6940 342910
6940 27748
6940 79363
6940 14570
6940 53478
6940 30938
6940 121803
6940 87987
6940 433758
6940 170261
6940 41939
6940 179279
6940 332574
6940 71210
6940 224040
6940 288076
6940 349589
6940 290420
6940 179276
6940 198345
6940 9011
6940 339602
6940 387534
6940 116484
6940 270571
6940 62564
6940 99154
6940 131849
6940 58939
6940 252564
6940 358391
6940 66278
6940 21730
6940 164267
6940 95040
6940 250944
6940 64994
6940 54359
6940 116211
6940 27738
6940 63388
6940 102497
6940 210487
6940 59356
6940 384788
6940 455164
6940 111756
6940 167083
6940 402804
6940 204743
6940 35343
6940 184285
6940 358472
6940 118424
6940 44989
6940 53613
6940 349590
6942 387590
6952 277302
269100 34719
6969 253741
6969 400015
6969 206740
6969 406862
6969 334986
6969 438933
6969 113517
6969 278674
6969 352567
6969 359468
6969 364863
6969 408977
6969 366917
6969 59169
6969 239013
6969 239882
6969 454159
6969 107998
6969 395121
6969 304267
6969 418670
6969 370902
6969 440487
6969 399873
6969 351025
6969 392563
6969 350922
6969 402562
6969 373804
6969 401723
6969 400557
6969 300470
6969 342086
6969 312143
6969 371999
6969 428728
6969 452389
6969 273935
6969 19495
6969 369786
6969 362167
6969 433154
6969 426667
6969 340375
6969 310237
6969 373805
6969 125634
6969 389797
6969 320906
6969 186170
6969 340672
6969 347806
6969 372367
6969 62979
6969 424335
6969 89586
6969 288501
6969 436157
6969 269230
6969 437854
6969 456468
6969 397056
6969 319682
6969 387396
6969 353098
6969 299539
6969 186415
269116 14454
269115 25883
6978 250645
269125 54863
6980 22282
6993 379825
6993 32618
6994 17432
269142 64320
269144 409878
269152 46010
269165 224761
7022 169231
7032 189445
7037 40420
269186 296082
7053 88055
7057 126464
269211 110941
269226 14454
7100 10964
7105 14454
7110 10720
7110 20395
7113 65130
7113 59797
7114 75565
7119 57320
7122 182010
7122 7200
7122 280772
269268 12687
269269 12687
7134 115640
269279 12687
269286 11714
7152 15210
7153 7222
269300 7698
7157 180282
269302 9964
269311 10853
7170 133197
7172 50901
269318 198048
269326 438533
7196 193643
7197 195548
7203 7256
269350 12510
7212 115649
7214 81470
7215 361655
7215 48039
269364 11795
7227 7279
269381 94501
269391 289037
269395 36249
7256 37194
7257 41674
7257 32226
7257 7259
7259 15730
7259 123894
7259 13987
7259 332250
7259 71311
7259 191510
269406 256853
269406 59945
269411 36252
7274 45188
7274 25960
7274 57761
7274 271061
7274 255542
7274 70457
7274 37609
7274 207330
7274 149280
7274 10400
7274 7801
7274 108464
7274 119565
7274 119280
7274 57052
7274 206268
7274 248245
7274 20435
7274 56330
7274 348541
7274 196805
7274 280972
7274 238213
7274 88892
7274 19168
7274 174859
7274 246061
7274 77829
7274 292760
7274 99018
7274 73021
7274 186079
7274 169453
7274 196146
7274 435453
7274 25102
7274 214927
7274 59367
7274 185612
7274 90640
7274 103447
7274 175331
7274 25544
7274 146704
7274 20368
7274 367907
7274 179066
7274 169886
7274 356988
7274 80067
7274 27005
7274 403412
7274 45201
7274 110284
7274 17531
7274 48800
7274 144941
7274 18611
7274 16581
7274 279104
7274 102788
7274 109995
7274 204522
7274 35414
7274 360651
7274 171067
7274 344863
7274 39459
7274 230886
7274 80128
7274 37185
7274 242633
7274 171081
7274 161403
7274 242462
7274 71159
7274 47949
7274 69385
7274 82859
7274 123354
7274 158308
7274 70584
7274 16498
7274 57322
7274 380739
7274 216440
7274 16598
7274 392930
7274 177894
7274 148615
7274 117831
7274 122797
7274 287817
7274 131415
7274 13078
7274 156162
7274 436785
7274 214258
7274 69075
7274 25248
7274 259753
7274 382785
7274 337808
7274 46794
7274 276150
7274 9673
7274 159518
7274 139819
7274 11037
7274 215058
7274 221149
7274 33977
7274 382164
7274 82591
7274 223999
7274 17141
7274 76193
7274 139334
7274 304454
7274 21139
7274 181136
7274 46251
7274 57007
7274 193090
7274 169359
7274 241220
7274 161404
7274 19652
7274 22506
7274 278497
7274 34549
7274 8263
7274 46112
7274 211983
7274 294441
7274 15326
7274 90178
7274 169597
7274 33429
7274 378842
7274 47538
7274 158013
7274 247120
7274 65888
7274 57153
7274 195583
7274 176654
7274 293425
7274 36281
7274 372373
7274 424629
7274 11026
7274 176485
7274 418392
7274 15521
7274 27152
7274 24387
7274 99882
7274 31357
7274 88065
7274 172379
7274 25531
7274 158491
7274 12127
7274 15868
7274 422159
269422 14454
7279 269699
7279 25692
7279 152084
7279 41031
7279 29411
7279 126594
7279 21915
7279 30374
7279 132264
7279 179435
7279 175186
7279 33265
7279 440303
7279 53112
7279 15241
7287 43168
7287 181890
7287 89358
7287 12904
7287 178078
7287 217738
7312 86400
7312 236608
269459 95905
7320 11585
7320 68538
7320 55406
7320 129683
7320 52678
7320 43866
7320 55399
7320 121513
7324 98645
7328 220212
7328 9964
269474 18450
7338 37803
269486 120347
7350 12755
269496 86813
7352 72242
269511 14454
269528 32553
269532 8942
7389 289038
7389 445668
7389 395987
7389 401272
7389 392620
7389 447469
7393 7436
7399 10269
7399 178442
7401 146747
7401 196014
7401 116515
7406 92785
7411 17141
7411 52830
7411 129446
7411 175789
7411 131267
7411 77086
7411 214133
7428 94979
7428 170037
7428 240975
7428 37684
7428 170273
7428 194069
7428 214409
7428 226055
7429 227138
7429 9904
7435 346869
7436 397197
7436 305242
7436 106351
7436 320794
7436 153419
7436 312059
7436 199480
7436 65479
7436 276128
7436 133743
7436 336618
7436 272851
7436 293874
7436 230664
7436 192677
7436 340813
7436 385492
7436 438884
7436 230824
7436 231226
7436 23238
7436 208515
7436 49474
7436 225196
7436 393172
7436 298885
7436 183820
7436 112121
7436 387247
7436 343549
7436 217075
7436 192444
7436 207073
7436 203894
7436 382894
7436 222231
7436 211892
7436 274368
7436 84449
7436 244977
7436 305922
7436 454025
7436 86678
7436 309988
7436 200853
7436 95428
7436 63563
7436 279204
7436 105191
7436 219905
7436 165335
7436 339526
7436 363738
7436 156885
7436 205060
7436 315180
7436 179111
7436 23699
7436 451360
7436 287529
7436 223870
7436 366295
7436 95273
7436 363791
7436 181584
7436 225460
7436 25633
7436 255481
7436 394587
7436 217317
7436 413484
7436 332905
7436 223502
7436 352561
7436 412961
7436 439610
7436 207196
7436 363816
7436 231610
7436 411776
7436 7437
7436 109065
7436 323702
7436 340649
7436 432324
7436 241467
7436 224548
7436 74843
7436 69661
7436 401024
7436 235158
7436 144889
7436 194669
7436 246317
7436 423026
7436 391485
7436 258958
7436 299467
7436 139851
7436 446886
7436 425790
7436 404224
7436 132113
7436 391202
7436 412556
7436 186648
7436 86259
7436 379682
7436 326533
7436 437015
7436 65617
7436 172094
7436 336824
7436 195803
7436 47966
7436 164623
7436 207072
7436 120295
7436 228371
7436 16309
7436 201197
7436 364737
7436 336270
7436 446248
7436 184228
7436 14345
7436 43063
7436 269891
7436 143730
7436 239655
7436 127939
7436 227704
7436 18729
7436 229135
7436 189312
7436 181812
7436 112609
7436 149746
7436 393347
7436 285901
7436 239353
7436 357989
7436 380851
7436 112386
7436 449375
7436 365330
7436 269759
7436 409758
7436 430697
7436 390409
7436 432210
7436 410028
7436 244960
7436 349251
7436 287336
7436 367402
7436 151460
7436 124622
7436 50773
7436 181376
7436 288675
7437 310207
7437 406625
7437 436320
7437 244667
7437 17890
7437 216253
7437 395438
7437 130015
7437 229528
7437 243825
7437 388798
7437 223925
7437 165988
7437 121646
7437 36130
7437 77897
7437 106351
7437 200514
7437 358328
7437 216218
7437 305523
7437 377388
7437 357770
7437 255950
7437 128240
7437 114263
7437 376505
7437 10300
7437 234172
7437 75619
7437 187814
7437 211344
7437 261338
7437 115122
7437 336463
7437 425232
7437 130044
7437 121058
7437 248249
7437 131886
7437 309087
7437 238236
7437 338188
7437 222373
7437 398862
7437 392916
7437 370240
7437 350540
7437 278990
7437 354111
7437 55443
7437 338056
7437 356055
7437 40316
7437 48588
7437 258958
7437 145482
7437 323143
7437 417446
7437 139851
7437 147058
7437 196412
7437 109056
7437 153964
7437 156091
7437 205596
7437 151460
7437 349000
7437 74619
7437 241467
7437 331607
7437 51141
7437 396855
7437 70725
7437 248177
7437 224017
7437 164294
7437 175284
7437 149236
7437 123557
7437 84449
7437 230886
7437 196184
7441 13890
7443 91763
7443 14454
7446 42311
7446 14454
7449 15027
7451 398142
7451 348755
7454 238525
7457 14484
7458 13798
269605 30391
269606 12687
7463 27738
7464 7505
7461 65851
7461 132585
7461 69579
269617 250519
7473 39889
7476 13722
7476 133418
7477 55858
7479 45337
7482 92785
7483 7505
7485 128864
7485 332996
7485 81310
7500 14454
7501 293022
7501 425497
7501 55634
7501 353222
7501 81405
7501 148611
7501 47010
7501 411242
7501 25089
7501 293014
7501 253856
7501 50401
7501 132270
7501 228379
7501 145164
7501 27483
7501 197852
7501 176522
7501 167376
7501 77562
7501 44183
7501 175349
7501 26129
7501 226536
7501 112555
7501 97852
7501 183377
7501 258963
7502 36919
7505 65031
7505 35763
7505 324419
7505 80759
7505 31405
7505 209129
7505 99867
7505 99495
7512 31038
7512 18375
7512 130434
269666 14454
269681 77242
7542 113028
7542 72820
269696 27185
7552 172854
7552 184672
7559 44172
7559 28475
269703 7590
269709 113817
269709 299815
7573 233125
269721 294416
269727 294416
7584 208459
7584 43168
7588 16460
7590 350293
7590 352371
7590 302489
7590 405545
7590 230933
7590 276523
7590 308301
7590 53357
7590 448830
7590 250680
7590 193061
7590 205505
7590 332014
7590 144923
7590 290531
7590 270139
7590 118940
7590 207578
7590 278330
7590 281903
7590 323395
7590 358337
7590 375372
7590 85029
7590 157002
7590 308634
7590 345834
7590 401447
7590 453050
7590 361980
7590 306057
7590 448629
7590 206213
7590 124300
7590 215378
7590 262118
7590 418241
7590 208372
7590 172897
7590 337061
7590 347024
7590 412997
7590 245278
7590 154965
7590 310025
7590 228842
7590 233862
7590 236679
7590 422562
7590 197818
7590 302470
7590 273935
7590 217511
7590 162970
7590 449020
7590 312876
7590 351416
7590 182486
7590 373694
7590 192566
7590 79707
7590 427799
7590 395314
7590 363688
7590 178566
7590 69415
7590 259312
7590 355325
7590 293353
7590 339854
7590 409974
7590 270700
7590 272312
7590 300443
7590 326065
7590 301347
7590 399470
7590 285881
7590 351963
7590 388355
7590 399075
7590 342230
7590 116879
7590 420089
7590 222901
7590 342240
7590 378074
7592 153115
7592 272791
7592 333231
7592 291598
7592 337317
7592 190993
7592 380406
7592 128045
7592 41939
7592 358560
7592 350877
7592 363335
7592 85454
7592 402955
7592 371363
7592 125400
7592 386806
7592 40119
7592 222773
7592 407166
7592 99945
7592 336710
7592 272362
7592 247989
7592 282252
7592 183091
7592 132210
7592 342064
7592 184628
7592 296386
7592 114906
7592 243496
7592 428971
7592 280680
7592 369250
7592 360160
7592 380043
7592 108507
7592 400261
7592 363382
7592 337099
7592 187280
7592 358347
7592 347351
7592 258086
7592 97434
7592 99130
7592 128120
7592 325748
7592 339690
7592 138063
7592 342018
7592 336756
7592 260788
7592 322210
7592 136265
7592 332308
7592 176158
7592 218955
7592 149482
7592 293526
7592 443242
7592 261213
7592 277091
7592 52026
7592 233477
7592 252767
7592 305376
7592 276628
7592 436910
7592 344448
7592 427465
7592 410193
7592 159221
7592 344450
7592 394678
7592 402624
7592 245077
7592 340184
7592 340987
7592 291665
7592 429475
7592 118032
7592 192904
7592 175129
7592 415785
7592 354361
7592 430026
7592 277062
7592 135424
7592 347777
7592 277972
7592 305985
7592 164014
7592 343962
7592 315554
7592 279088
7592 202283
7592 74621
7592 257494
7592 309133
7592 116147
7592 342971
7592 98484
7592 31696
7592 84576
7592 155121
7592 334816
7592 434740
7592 306934
269738 294416
7596 171769
7599 38142
7599 107405
7599 306690
7599 248043
7599 336912
7599 360181
7599 116827
7599 27712
7599 324416
7599 156182
269746 59519
7603 7602
7602 44176
7609 247941
269758 9323
269765 68278
7627 436193
7627 233116
7627 320045
7627 244651
7627 423694
7627 276801
7627 226479
7627 374012
7627 270822
7627 121684
7627 255695
7627 383379
7627 298305
7627 426426
7627 238027
7627 165188
7627 173281
7627 356084
7627 447249
7627 444265
7627 418199
7627 427700
7627 399831
7627 395414
7627 437783
7627 270112
7627 346466
7627 452543
7627 330726
7627 107760
7627 239036
7627 345868
7627 158342
7627 251501
7627 445493
7627 180447
7627 430953
7627 168577
7627 250308
7627 436341
7627 453345
7627 406649
7627 304466
7627 231772
7627 414406
7627 368547
7627 425626
7627 408840
7627 282917
7627 113301
7627 336213
7627 372189
7627 288480
7627 371238
7627 166266
7627 344971
7627 389101
7627 314551
7627 255498
7627 430701
7627 312879
7627 135504
7627 94662
7627 127398
7627 240563
7627 206735
7627 255444
7627 309323
7627 210801
7627 358494
7627 201659
7627 154391
7627 271877
7627 230988
7627 345964
7627 290292
7627 429701
7627 169150
7627 226611
7627 301315
7627 415632
7627 235085
7627 121685
7627 236467
7627 26207
7627 235572
7627 251031
7627 252608
7627 208881
7627 428899
7627 449849
7627 364278
7627 436502
7627 158212
7627 290297
7627 312880
7627 364565
7627 300649
7627 172646
7627 456403
7627 209027
7627 331010
7627 227041
7627 215553
7627 452685
7627 190721
7627 399729
7627 350970
7627 421615
7627 420996
7627 423914
7627 456300
7627 424589
7627 259644
7627 237085
7627 153884
7627 279675
7627 261699
7627 284358
7627 233508
7627 420722
7627 293821
7627 103760
7627 116326
7627 344638
7627 316938
7627 272599
7627 227376
7627 440222
7627 50147
7627 270519
7627 369312
7627 228084
7627 90443
7627 145458
7627 195769
7627 202159
7627 292525
7627 21196
7627 219256
7627 423013
7627 371586
7627 89550
7627 379263
7627 346676
7627 80955
7627 212194
7627 284112
7627 211348
7627 171648
7627 442576
7627 235001
7627 310883
7627 303876
7627 304220
7627 417344
7627 244649
7627 332870
7627 273687
7627 230162
7627 300598
7627 330561
7627 219330
7627 409608
7627 229562
7627 257165
7627 317943
7627 241169
7627 288359
7627 244648
7627 182280
7627 184527
7627 451344
7627 233106
7627 256107
7627 424921
7627 341781
7627 449202
7627 294621
7627 411035
7627 388456
7627 137019
7627 139956
7627 146603
7627 443664
7627 171109
7627 305029
7627 417756
7627 156987
7627 108177
7627 440861
7627 254970
7627 378478
7627 370833
7627 409943
7627 270743
7627 432293
7627 443489
7627 219127
7627 333198
7627 369744
7627 322854
7627 184191
7627 238295
7627 321678
7627 301096
7627 258480
7627 46875
7627 342900
7627 237379
7627 162546
7627 388407
7627 103958
7627 240522
7627 240866
7627 305069
7627 348184
7627 306335
7627 303064
7627 233110
7627 294180
7627 235000
7627 348974
7627 160685
7627 232414
7627 208547
7627 208405
7627 321806
7627 319253
7627 225134
7627 290295
7627 374578
7627 449660
7627 162554
7627 271821
7627 172944
7627 402746
7627 345026
7627 120630
7627 306336
7627 348272
7627 233101
7627 398472
7627 154989
7627 214817
7627 362195
7627 145073
7627 448139
7627 207972
7627 313634
7627 323968
7627 225767
7627 312526
7627 150712
7627 246337
7627 244645
7633 14454
7633 55848
7634 441359
7634 111235
7634 22097
7634 11950
7634 107606
7634 358808
7634 191812
7634 393611
7638 393124
269783 27869
7644 427182
7644 88227
7644 423192
7644 378310
7644 272840
7644 179258
269792 84005
269795 20111
269810 10574
269810 42182
7668 26679
269813 48920
269813 133720
7669 114026
269815 204098
269816 429306
269816 16528
269816 50769
269816 90980
269816 116323
269816 34236
269816 57136
269816 145733
269816 59893
269816 300186
269816 57105
269816 277595
269816 30218
269816 62195
7675 206492
7675 86164
7675 236511
7675 115867
7675 307439
7675 201793
7675 419439
7675 21369
7675 84206
7675 413256
7675 11308
7675 25125
7675 421573
7675 141289
7675 102016
7675 73710
7675 66213
7675 169619
7675 438592
7675 117151
7682 19671
7682 232287
7690 38902
7690 35950
7690 249251
7690 178182
7690 33965
7690 73684
7690 349632
7690 67292
7690 387416
7690 363895
7690 115842
7690 363742
7690 39568
7690 240345
7690 181654
7690 11580
7690 52309
7690 148273
7690 115873
7690 84193
7690 362968
7690 261165
7690 176988
7690 11364
7690 172738
7690 103986
7690 127687
7690 141296
7690 39977
7698 392410
7698 364445
7698 338553
7698 216495
7698 422679
7698 211485
7698 221347
7698 352298
7698 392064
7698 238623
7698 416644
7698 277418
7698 229860
7698 430543
7698 335090
7698 421118
7698 247336
7698 200769
7698 285272
7698 339468
7698 73150
7698 221329
7698 414037
7698 283124
7698 304042
7698 322680
7698 390405
7698 410216
7698 161050
7698 189163
7698 251367
7698 171650
7698 280140
7698 280404
7698 379077
7698 422512
7698 400112
7698 138778
7698 208184
7698 243096
7698 335235
7698 234113
7698 140552
7698 224275
7698 194669
7698 116231
7698 109685
7698 411867
7698 130174
7698 243954
7698 220023
7698 71158
7698 278530
7698 113390
7698 424295
7698 279585
7698 315981
7698 135014
7698 194211
7698 36811
7698 324905
7698 377230
7698 436387
7698 388413
7698 209144
7698 308673
7698 433022
7698 350129
7698 401418
7698 419508
7698 255587
7698 246289
7698 446593
7698 437349
7698 277502
7698 400505
7698 211122
7698 335526
7698 126744
7698 252739
7698 300643
7698 388716
7698 225100
7698 386314
7698 409350
7698 272598
7698 231961
7698 22280
7698 279286
7698 202949
7698 223911
7698 396815
7698 414704
7698 429925
7698 231404
7698 410544
7698 270882
7698 309041
7698 304410
7698 234000
7698 176838
7698 427163
7698 362437
7698 36013
7698 171797
7698 177561
7698 149839
7698 180486
7698 177963
7698 426767
7698 205577
7698 319036
7698 99015
7698 400799
7698 214225
7698 335668
7698 180871
7698 353479
7698 421805
7698 410837
7698 126738
7698 217929
7698 219891
7698 325358
7698 17894
7698 256702
7698 405761
7698 427209
7698 275428
7698 370481
7698 149200
7698 214096
7698 261313
7698 313345
7698 381935
7698 389990
7698 20604
7698 377798
7698 435606
7698 348382
7698 102201
7698 204141
7698 313983
7698 273443
7698 327665
7698 233433
7698 429479
7698 118554
7698 430176
7698 100419
7698 214049
7698 449568
7698 300282
7698 378301
7698 439716
7698 219606
7698 204794
7698 434882
7698 354913
7698 221766
7698 382609
7698 328109
7698 202035
7698 335073
7698 285439
7698 284050
7698 380264
7698 348179
7698 179430
7698 439514
7698 447175
7698 408002
7698 456612
7698 420560
7698 430373
7698 391451
7698 435941
7698 441874
7698 408397
7698 237878
7698 347735
7698 220241
7698 13296
7698 352135
7698 313650
7698 359219
7698 200960
7698 443435
7698 280202
7698 400865
7698 206680
7698 229868
7698 205879
7698 23601
7698 222616
7698 80669
7698 127369
7698 388856
7698 167495
7698 388313
7698 441903
7698 422687
7698 216792
7698 428443
7698 379398
7698 318657
7698 387341
7698 326774
7698 281027
7698 309040
7698 217484
7698 431129
7698 360749
7698 403356
7698 246588
7698 133607
7698 450270
7698 319944
7698 280603
7698 423159
7698 369037
7698 292033
7698 318557
7698 420037
7698 278290
7698 224978
7698 181597
7698 252884
7698 224500
7698 183807
7699 16715
7699 52793
7715 77854
7741 10639
7741 32796
7740 14454
7763 137455
269908 14454
7772 12022
269919 14648
269920 64159
269920 301988
269923 37134
7783 197839
7783 21414
7783 343866
7783 199261
7783 419418
7783 208792
7783 83669
7783 102759
7783 218902
7783 45275
7783 424260
7783 225634
7783 223203
7783 383738
7783 208186
7783 302030
7783 138185
7783 452765
7783 306655
7783 261414
7783 16020
7783 315499
7783 213340
7783 32643
7783 297377
7783 244408
7783 143878
7783 215518
7783 178470
7783 25280
7783 208790
7783 214502
7783 181213
7783 203500
7783 312612
7783 212929
7783 51160
7783 399921
7783 185612
7783 351511
7783 18043
7783 83270
7783 196196
7783 50755
7783 82418
7783 190134
7783 151169
7783 294876
7785 187227
7785 136817
7786 16011
269929 28462
7791 86053
7791 296591
7791 38258
7791 64028
7791 139334
7791 125510
7791 46789
7791 134458
7791 62299
7791 132322
7791 45239
7791 26485
7791 38279
7791 21282
7791 29726
7791 68637
7791 191924
7791 38264
7791 34833
7791 104281
269936 32226
269940 286613
7801 9964
7801 45697
7801 66985
7801 12159
7801 89734
7801 10896
7801 63931
7819 429848
7819 198875
7819 76207
7819 21695
7819 43915
7819 152761
7819 126995
7825 139098
7825 154294
7825 272645
7825 139132
7825 139096
7825 64494
7825 221298
7825 59367
7825 212193
7825 192994
7825 10694
7825 139125
7825 25147
7825 139152
7825 325071
7825 216904
7825 107127
7825 355406
7826 158466
7826 122897
7826 127101
7833 78584
7833 11155
7833 417612
269980 46658
270013 68278
7891 18576
270035 42182
7920 118810
7929 14454
7937 161701
7937 306496
7937 355031
7937 30005
7937 374445
7937 56888
7937 97590
7937 49195
7937 174316
7937 240604
7937 10435
7937 295604
7937 214946
7937 182342
7937 207046
7937 64148
7937 390867
7937 217858
7937 354343
7937 11263
7937 20465
7937 54752
7937 220763
7937 175861
7937 126684
7937 145837
7937 377517
7937 347178
7937 143859
7937 186955
7937 44805
7937 162712
7937 163063
7937 374303
7937 186693
7937 183796
7937 375700
7937 134956
7937 365482
7937 436623
7937 213622
7937 67786
7937 55583
7937 58302
7937 97543
7937 260331
7937 427703
7937 221207
7937 287673
7937 122962
7937 241693
7937 197493
7937 148134
7937 216483
7937 430471
7937 91367
7937 67783
7937 26168
7937 401582
7937 371990
7937 245451
7937 378086
7937 207359
7937 220407
7937 372684
7937 191315
7941 11714
7946 8268
7951 249794
7951 167590
7951 224766
7951 276162
7951 143877
7954 8942
7956 311921
7956 371287
7956 130334
7956 146857
7956 230513
7956 329122
7956 256439
7956 134226
7956 71411
7956 159376
7956 45324
7956 208579
7956 179935
7956 137876
7956 58604
7956 403463
7956 69358
7956 105329
7956 375361
7956 276379
7956 430448
7956 143510
7956 42751
7956 212200
7956 142734
7956 251126
7956 97519
7956 224427
7956 294917
7956 317223
7956 147752
7956 331145
7956 204807
7956 32283
7956 244959
7956 439290
7956 284771
7956 208891
7956 218372
7956 339980
7956 240615
7956 384322
7956 270607
7956 244186
7956 217479
7956 193867
7956 167828
7956 391363
7956 10686
7956 380530
7956 182390
7956 228371
7955 132948
7977 142136
270129 44869
270167 110005
270167 128559
270189 128559
8046 14454
8065 173353
270217 14454
270217 288509
270217 16533
270218 132651
270220 99756
270237 30837
270239 30857
270266 252174
8125 14128
8126 84160
8126 76765
8126 12058
8126 382610
8126 216012
8126 203027
8126 9964
8126 198042
8126 36458
8126 45846
8127 13249
270270 174819
8130 8138
270277 122469
8138 17966
8138 9964
8138 11028
8142 275348
8148 205389
270298 31549
8155 10434
270305 19559
8175 17966
270324 31346
8205 177151
8205 26906
8205 40086
8206 68138
8208 194669
8208 224163
8208 301684
8208 192630
8208 410223
8208 153538
8208 171382
8208 280722
8208 370728
8208 226586
8208 234965
8208 260371
8208 125490
8208 291495
8208 114370
8208 409544
8208 272396
8208 143878
8208 406073
8208 428290
8208 207632
8208 249393
8208 391381
8208 217151
8208 134415
8208 210223
8208 285716
8208 421711
8208 438253
8208 213738
8208 211159
8208 141242
8208 238649
8208 249862
8208 222882
8208 205349
8208 320803
8208 211370
8208 380615
8208 284761
8208 428881
8208 308466
8208 212228
8208 96271
8208 390393
8208 242305
8208 214870
8208 180230
8208 259238
8208 382332
8208 67865
8208 355053
8208 158683
8208 78044
8208 414967
8208 97692
8208 143642
8208 377744
8208 173942
8208 149840
8208 330121
8208 319240
8208 162640
8208 426836
8208 235484
8208 329453
8208 210953
8208 85306
8208 16190
8208 199147
8208 158673
8208 292441
8208 418512
8208 81152
8208 238898
8208 38801
8208 115644
8208 408400
8208 207356
8208 298761
8208 219214
8208 444014
8208 387119
8208 431656
8208 161170
8208 192629
8208 219643
8208 355326
8208 344506
8208 13518
8208 195729
8208 402615
8208 181213
8208 210219
8208 241275
8208 223823
8208 290329
8208 172051
8208 405544
8208 10925
8208 219998
8208 88091
8208 100578
8208 152339
8208 101833
8208 270549
8208 211229
8208 163076
8208 214108
8208 402825
8208 77773
8208 242941
8208 222738
8208 338056
8208 203835
8208 124257
8208 225289
8208 412567
8208 351077
8208 35920
8208 212855
8208 258686
8208 172052
8208 402357
8208 90188
8208 220747
8208 186479
8208 356154
8208 449551
8208 249029
8208 112110
8208 405780
8208 210304
8208 174830
8208 358597
8208 275347
8208 174741
8208 204201
8208 51026
8208 365662
8228 15954
8235 149256
270383 68278
270386 122449
8243 8251
8248 366810
270394 68278
270397 179509
270397 68278
270397 222230
8254 33272
270399 67792
8268 355498
8268 320604
8268 451582
8268 198562
8268 9867
8268 240525
8268 281179
8268 413791
8268 350361
8268 427823
8268 200708
8268 10026
8268 412795
8268 406101
8268 422152
8268 172803
8268 388137
8268 200185
8292 10645
8292 34170
270437 273592
8293 162853
8293 168317
8293 322559
8293 161350
8300 178353
8302 229440
8302 50989
8303 96061
8303 36734
8303 27121
8303 51228
8303 210086
8303 215172
8303 322190
8303 259467
8303 185593
8303 142577
8303 47365
8303 318595
8303 74765
8303 29359
8303 143113
8303 121428
8303 191172
8303 242713
8303 223201
8303 398152
8303 141883
8303 182816
8303 158683
8303 171392
8303 213340
8303 70048
8303 42084
8303 175612
8303 83436
8303 35827
270457 270458
8322 152125
8322 304684
8327 67105
8329 78323
8334 101586
270480 68278
270481 68278
8338 313920
8354 20786
8357 112952
270507 313335
270508 72798
270512 12755
270522 27712
8384 8393
270534 65714
8392 83082
8392 127997
8399 18187
8399 44716
8399 88286
8399 134145
8408 141564
8408 81957
8408 326838
8409 150525
8409 281414
8409 349222
8409 288595
8409 47519
270559 39522
8416 121502
8416 117874
8416 225588
8416 355635
270563 9964
270583 32972
8446 94151
8446 176125
8446 84940
8446 157982
8457 36255
8461 8496
270605 270606
8462 17890
8465 26965
8465 168261
8463 51382
8463 165102
8470 75563
8476 30324
8477 281077
8477 203175
8477 85091
8477 196507
8479 30324
270624 14454
270636 57159
8492 148658
8496 126779
8496 259864
8499 64705
8499 78613
8505 442511
270650 13765
8511 115382
8512 12159
8512 76318
8512 95746
8512 169482
8512 180547
270659 16460
270665 36371
270677 16323
8545 136078
8546 24797
270705 42927
270718 270719
270720 178192
8588 139778
8588 391036
8591 9025
8598 421490
8598 445138
8598 294705
8598 128024
8598 213460
8598 417860
8598 303701
8598 59619
8598 335670
8598 115305
8598 116826
8598 359359
8598 56381
8598 305298
8598 276224
8598 311570
8598 249780
8598 198902
8598 289725
8598 280884
8598 123736
8598 237796
8598 74480
8598 321245
8598 432186
8598 9001
8598 86676
8598 27714
8598 129531
8598 108509
8598 162219
8598 96112
8598 292061
8598 145600
8598 349802
8598 321820
8598 100244
8598 353791
8598 254996
8598 234758
8598 303987
8598 134327
8598 173874
8598 86716
8598 365118
8598 359661
8598 19986
8598 245315
8598 188596
8598 167694
8598 86720
8598 190819
8598 244220
8598 322369
8598 416552
8598 102367
8598 366773
8598 437535
8598 136306
8598 398052
270753 18168
270753 75059
270757 32845
8614 282071
8614 162766
8614 455979
8614 401727
270762 221906
270759 22004
8634 47967
8638 14454
270784 14454
270784 17687
270793 67580
270794 14454
270803 57019
8660 41114
270805 208394
270804 14454
270808 323176
8665 32902
8659 44613
270816 9964
270825 8942
8687 22627
270836 16011
8693 260214
8693 22627
8701 20920
8706 116762
8706 31214
8706 36984
8706 28156
8706 144551
8708 65138
8717 18450
8717 19957
8720 195576
8720 19954
8720 376311
8720 109784
270872 60490
8732 423606
8732 61438
8732 36178
8732 61639
8732 117273
8732 163739
8732 347467
8732 292011
8732 243826
270890 16460
8747 80861
8747 356740
8747 340369
8747 398374
8747 90626
8747 412225
8747 102318
8747 134814
8747 257907
8754 8796
8759 14454
8759 8824
8765 321147
8767 285585
8767 363473
8767 375543
8767 41924
8767 334777
8767 45274
8767 71995
8767 292911
8767 294921
8767 355972
8767 386672
8767 280601
8767 318188
8767 321545
8767 42251
8767 282439
8767 335491
8767 76881
8767 397798
8767 349769
8767 251892
8767 69513
8767 296829
8767 410286
8767 420331
8767 278316
8767 243375
8767 330614
8767 396617
8767 119537
8767 230433
8767 320308
8767 118083
8767 30485
8767 61333
8767 202730
8767 397243
8767 31696
8767 72038
8767 219193
8767 237428
8767 399495
8767 254903
8767 183854
8767 284047
8767 125129
8767 311601
8767 347414
8767 353986
8767 71987
8767 346900
8767 103122
8767 35470
8767 280884
8767 426102
8767 333392
8767 137999
8767 339431
8767 63504
8767 86765
8767 130833
8767 153297
8767 452176
8767 80718
8767 364625
8767 72000
8767 107068
8767 448830
8767 125563
8767 226103
8767 293287
8767 410049
8767 401904
8767 195958
8767 321544
8767 97426
8767 415056
8767 156511
8767 125573
8767 114687
8767 438446
8767 52603
8767 232826
8767 379246
8767 83153
8767 372244
8767 372111
8767 313886
8767 316257
8767 358164
8767 260728
8767 105538
8767 347705
8767 201644
8767 325854
8767 367974
8767 235235
8767 143748
8767 308718
8767 49702
8767 356978
8767 55998
8767 178333
8767 379194
8767 357998
8767 332847
8767 49728
8767 261436
8767 416775
8767 398674
8767 312949
8767 409102
8767 167109
8767 318910
8767 351093
8767 324233
8767 182564
8767 118251
8767 316050
8767 250902
8767 83879
8767 176179
8767 396369
8767 172158
8767 155455
8767 319751
8767 84348
8767 118244
8767 378482
8767 143174
8767 75297
8767 188464
8767 335481
8767 282270
8767 109778
8767 389073
8767 123031
8767 246321
8767 226660
8767 190797
8767 257190
8767 209705
8767 109311
8767 370991
8767 321307
8767 44988
8767 155462
8767 336058
8767 385627
8767 393945
8767 337129
8767 402481
8767 131487
8767 256104
8767 345526
8767 326753
8767 59181
8767 362775
8767 311559
8767 160427
8767 57313
8767 343239
8767 360041
8767 327055
8767 260214
8767 335395
8767 338152
8767 401933
8767 351441
8767 361421
8767 356903
8767 9017
8767 336714
8767 36221
8767 139986
8767 243761
8767 362707
8767 359919
8767 174607
8767 305283
8767 345051
8767 315327
8767 339492
8767 240683
8767 222111
8767 422633
8767 393367
8767 72053
8767 124213
8767 386887
8767 371114
8767 63312
270919 20982
270922 240450
8782 119038
8784 105007
8784 65141
8785 8809
8798 162761
8798 353133
270948 14615
270949 178046
8808 9005
270955 53135
8815 148486
8822 342688
8824 188694
8824 368881
8824 224969
8824 125586
8830 9048
8839 51704
8839 20752
8839 23956
8839 9964
8839 51422
8839 68828
8839 49565
8839 9025
8847 87721
8855 9025
8855 33833
8855 40261
8855 50276
8855 136629
8864 32972
8864 244707
271020 128559
271021 59945
271021 16460
271043 271044
271049 93051
271055 113315
8917 19944
8922 202975
8924 96113
8931 106765
271078 25905
8938 162587
8938 254393
8938 50349
8938 136629
8938 235473
271085 14454
8942 28399
8942 97757
8942 95702
8942 296115
8942 285997
8942 50157
8942 9967
8942 215832
8942 47722
8942 239742
8942 404609
8942 428477
8942 133864
8942 217294
8942 255369
8942 242916
8942 290692
8942 356825
8942 418615
8942 90247
8942 215464
8942 163099
8942 146101
8942 243329
8942 415932
8942 235690
8942 193404
8942 367073
8942 139648
8942 429413
8942 250023
8942 245610
8942 39784
8942 298489
8942 421406
8942 197589
8942 136963
8942 38589
8942 95240
8942 304077
8942 189911
8942 449768
8942 100382
8942 138837
8942 452527
8942 230991
8942 60496
8942 276426
8942 153268
8942 122560
8942 123821
8942 260764
8942 419562
8942 335413
8942 63454
8942 427097
8942 246127
8942 247267
8942 61460
8942 419223
8942 256292
8942 206392
8942 287992
8942 121241
8942 302995
8942 91055
8942 201793
8942 240031
8942 245977
8942 167245
8942 174335
8942 209484
8942 385800
8942 105593
8942 10442
8942 284219
8942 320135
8942 176440
8942 107913
8942 416499
8942 153248
8942 251147
8942 436037
8942 168785
8942 142919
8942 51652
8942 288673
8942 98029
8942 452753
8942 379889
8942 112683
8942 192600
8942 182339
8942 405041
8942 77075
8942 71043
8942 380030
8942 95611
8942 251706
8942 142112
8942 29502
8942 434346
8942 261034
8942 195128
8942 89119
8942 91675
8942 331115
8942 311934
8942 242875
8942 259219
8942 198562
8942 340631
8942 436454
8942 346548
8942 191299
8942 302097
8942 33569
8942 51319
8942 440989
8942 107548
8942 415828
8942 62732
8942 236387
8942 51428
8942 421656
8942 437119
8942 97981
8942 67922
8942 238525
8942 153885
8942 80648
8942 224786
8942 127261
8942 243521
8942 273312
8942 215707
8942 344976
8942 301831
8942 289377
8942 218607
8942 413470
8942 228925
8942 253013
8942 138539
8942 208582
8942 155778
8942 144136
8942 308140
8942 343971
8942 80113
8942 333806
8942 150125
8942 245456
8942 368394
8942 149000
8942 51397
8942 162133
8942 86734
8942 187752
8942 194166
8942 389679
8942 86559
8942 317535
8942 36902
8942 417072
8942 10389
8942 81297
8942 84507
8942 344732
8942 143214
8942 134408
8942 113381
8942 379282
8942 229068
8942 16947
8942 79449
8942 220335
8942 104224
8942 118129
8942 90673
8942 286094
8942 244247
8942 101197
8942 437229
8942 224683
8942 209613
8942 383219
8942 274712
8942 301374
8942 192564
8942 255478
8942 297904
8942 179788
8942 348737
8942 93751
8942 187525
8942 301765
8942 206371
8942 180245
8942 9863
8942 223717
8942 121734
8942 421407
8942 292770
8942 159044
8942 275005
8942 314430
8942 275654
271091 103271
8948 105790
271101 41482
8978 157735
8978 166042
8978 341232
8978 141716
8990 60035
8994 114883
271141 34312
8998 18450
8998 65701
271146 14454
9003 339374
9003 296932
9003 122498
9003 16780
9003 114834
9003 254172
9003 258420
9003 370913
9003 414157
9003 273513
9003 293366
9003 145647
9003 394565
9003 124057
9003 162219
9003 313449
9003 299259
9003 282119
9003 398465
9008 39281
9011 20920
9011 31450
9011 47821
9017 169287
9017 19919
9017 14454
9024 50276
9024 86631
9024 237390
9024 210672
9024 174607
9025 121760
9025 92874
9025 256261
9025 148237
9025 394350
9025 104057
9025 339819
9025 69886
9025 136629
9025 373169
9025 196228
9025 16528
9025 411883
9025 111325
9025 383621
9025 138619
9025 235473
9025 102497
9025 344696
9025 112484
9025 312164
9025 14570
9025 302468
9025 138074
9025 120076
9025 157176
9025 386123
9025 107087
9025 169395
9025 99038
9025 182048
9025 68758
9035 127500
9036 50276
9036 50244
9036 37169
9036 33833
9036 88690
271181 28091
271181 32972
9037 424302
9037 420344
9037 41978
9048 86627
9048 117112
9048 98662
9050 19931
9050 123876
9050 117116
9050 205670
9060 50257
9060 251039
271214 14648
271217 14648
9082 86699
9087 276121
271238 13798
9095 47803
9103 22407
9116 73476
9116 22477
9116 98646
9116 138943
9116 71430
9116 354056
9116 129954
9139 62461
9139 311223
9139 79986
9139 86297
9139 49761
9140 181265
9147 37219
9156 251676
271303 91233
271303 102234
9161 126571
9162 13938
9162 13633
271311 272841
271314 122469
9174 79890
9175 335633
9175 430051
9175 214543
9177 170547
9184 196538
9184 49299
9187 73476
9187 56312
9192 109368
9192 93337
9192 239242
9192 82042
9192 199121
9193 32226
9193 195220
9193 237122
9206 9226
9208 196146
9208 46328
271367 165552
9226 91147
9226 10208
9226 47525
9226 47504
9226 301415
9226 134553
9226 130555
9226 195220
9226 384740
9227 116893
9227 129953
9227 202768
271373 102144
9232 13089
9236 85180
9242 13633
9244 132765
9255 293319
9255 210878
271400 374090
9271 443597
9271 218066
9271 45675
9271 313207
9271 414345
9271 208024
271437 60827
271442 42927
9298 50149
9302 95750
9305 44975
9305 214075
9305 153749
9310 9964
9316 15209
9319 166694
271465 166096
271466 57105
9323 274474
9323 396275
9323 32819
9323 198381
9323 90003
9323 378836
9323 362242
9323 44540
9323 209802
9323 370379
9323 330172
9323 176686
9323 221007
9323 227804
9323 200764
9323 190158
9323 339796
9323 191415
9323 199374
9323 260549
9323 354328
9323 71849
9323 159298
9323 19064
9323 313324
9323 283833
9323 427066
9323 45188
9323 285270
9323 259595
9323 204764
9323 348200
9323 344336
9323 150541
9323 360215
9323 253183
9323 105814
9323 114001
9323 62778
9323 176527
9323 280931
9323 260253
9323 158267
9323 204321
9323 299721
9323 235875
9323 239719
9323 114793
9323 339070
9323 344464
9323 224460
9323 107449
9323 157823
9323 320624
9323 346553
9323 187243
9323 385889
9323 76700
9323 78446
9323 291218
9323 168456
9323 42971
9323 130306
9323 275444
9323 186423
9323 429206
9323 162092
9323 439086
9323 277769
9323 143074
9323 188669
9323 426705
9323 406474
9323 130233
9323 148110
9323 337678
9323 102697
9323 370268
9323 217391
9323 308434
9323 230741
9323 109050
9323 206791
9323 378577
9323 21244
9323 33509
9323 32575
9323 14712
9323 87629
9323 109943
9323 25931
9323 184006
9323 25020
9323 139532
9323 119253
9323 294706
9323 119144
9323 445964
9323 41110
9323 409465
9323 244818
9323 68618
9323 72151
9323 184809
9323 139481
9323 117902
9323 169153
9323 10761
9323 444306
9323 113224
9323 137909
9323 324593
9323 243790
9323 290925
9327 44695
271471 430227
271479 14454
9336 9964
9353 126779
9353 370253
9353 142186
9354 386574
9354 163697
9354 246017
271499 14454
9360 28896
9360 417503
9360 276203
9360 30248
9360 382057
9371 323166
271527 128559
9389 13249
9392 62490
271539 90107
271546 19870
271559 116924
9417 205870
9424 38310
271571 276116
9430 68427
9444 85319
271588 433454
271592 67032
9466 23534
9466 48498
9466 72929
9466 86985
271611 34963
9475 45383
9475 185118
9475 153938
9475 80089
9475 23374
9475 72960
9475 167903
9475 182966
9476 188070
9476 47974
9476 95870
9477 62514
9492 422587
9492 202827
9492 125078
9492 160652
271638 13383
271642 62215
271648 20244
271654 288132
9512 13633
271660 413710
271672 16533
271677 242297
9584 169005
9588 207241
9596 28363
9598 229600
9604 13141
9605 347974
9605 93751
9608 12876
271764 16460
271771 19913
9638 276998
9645 14454
9666 56546
9682 152328
9682 378873
9682 61353
9682 230063
9682 382239
9682 60371
9682 80785
9682 54521
9682 142551
9682 157211
9682 129795
9682 188460
9682 134554
9682 76044
9682 41480
9682 434615
9682 41633
9682 48092
9682 106760
9682 194308
9682 248995
9682 185370
9682 22727
9682 128804
9682 154171
9682 40432
9682 76147
9682 358108
9682 202558
9682 175355
9682 55296
9682 67384
9682 39774
9683 9964
9695 200278
9700 13798
9701 49586
9701 151045
9704 280798
9704 29704
9704 14893
9704 182014
9704 48374
9704 205700
9704 291635
9704 233047
9704 88712
9704 126956
9704 187703
9704 81150
9704 381414
9704 13893
9704 15210
9704 10755
9704 138495
9704 94182
9704 89751
9704 121640
9704 217042
9704 291928
9704 26334
9704 26173
9704 71854
9704 39889
9704 103447
9704 212194
9704 272519
9711 11139
271874 16460
271886 389548
271889 113099
9749 358708
9753 91145
9769 15113
9776 55353
9776 37933
271921 290863
9785 123396
9785 35403
9785 17182
9785 25203
9785 387346
271931 139816
271939 79911
9798 142642
271943 13633
271943 197114
9799 316840
9803 9822
271963 52469
9822 342815
9822 186564
9822 168140
9822 74678
9822 21196
9822 10020
9828 130728
9828 71504
9828 208461
9831 52172
9832 32382
271980 10924
271980 34485
271984 294416
9858 12824
9858 195847
9858 415253
9858 404697
9858 138754
9858 12886
9858 26969
9858 324910
272002 37341
9863 95611
9863 399863
9863 165100
9863 18168
9863 21386
9863 39774
9863 90641
9863 14454
9865 160043
272012 16293
9868 56229
9868 67415
9868 41540
9868 18694
9868 51850
9868 51849
9868 121289
272011 34793
9879 199098
9879 250988
9879 70451
9879 103081
9879 54723
9879 245891
272045 14454
9902 13250
9905 219807
9905 167812
9905 210083
9905 299153
9905 217458
9905 174495
9905 157225
9905 227970
9905 32764
9905 195437
9905 37467
9905 424491
272046 104856
272061 199989
9918 288958
9919 239263
9919 242220
9919 111414
9919 125219
9919 24452
9919 11230
9919 63304
9919 147020
9923 114213
9924 39752
9932 103447
9932 128820
9932 9964
9932 24335
9937 77393
9941 120057
9941 73144
9941 13916
9941 345779
9941 14454
9941 95273
9941 51886
9945 395612
9945 73755
9945 158929
272092 14615
9949 156488
9949 16676
9951 132832
9951 22470
9951 164151
9951 52200
9955 45395
9956 118915
9960 366295
9964 47868
9964 44775
9964 189846
9964 83982
9964 415253
9964 431909
9964 130595
9964 186038
9964 31162
9964 56964
9964 211132
9964 52761
9964 147752
9964 151058
9964 172062
9964 448032
9964 168933
9964 173024
9964 81581
9964 342706
9964 10113
9964 48991
9964 89759
9964 221544
9964 280408
9964 176485
9964 177523
9964 158359
9964 54838
9964 327337
9964 223058
9964 74905
9964 253175
9964 139112
9964 232249
9964 149859
9964 160612
9964 133887
9964 20395
9964 171626
9964 172963
9964 212620
9964 130174
9964 454631
9964 201375
9964 400346
9964 166169
9964 97573
9964 187871
9964 13267
9964 68355
9964 171149
9964 201097
9964 162873
9964 235455
9964 10300
9964 142539
9964 141834
9964 93946
9964 27009
9964 107813
9964 231086
9964 30376
9964 15755
9964 32820
9964 208813
9964 416146
9964 56449
9964 227638
9964 104893
9964 38865
9964 349154
9964 50015
9964 148118
9964 171634
9964 36306
9964 98328
9964 141714
9964 100184
9964 340301
9964 11037
9964 227528
9964 148009
9964 176053
9964 69113
9964 194074
9964 417299
9964 70148
9964 16895
9964 189693
9964 89788
9964 312036
9964 190358
9964 437280
9964 248141
9964 108134
9964 84030
9964 426863
9964 345076
9964 210086
9964 412948
9964 92693
9964 193799
9964 354546
9964 308368
9964 276359
9964 80101
9964 115068
9964 385684
9964 19284
9964 124936
9964 300091
9964 190766
9964 125463
9964 150512
9964 113715
9964 294940
9964 168621
9964 211489
9964 29376
9964 206216
9964 222053
9964 16103
9964 403696
9964 18801
9964 437399
9964 230015
9964 223505
9964 137972
9964 222435
9964 13131
9964 177758
9964 339199
9964 224441
9964 244393
9964 36483
9964 236608
9964 82591
9964 209406
9964 235887
9964 177392
9964 439076
9964 100814
9964 143042
9964 244663
9964 238950
9964 70259
9964 214473
9964 186746
9964 220707
9964 230181
9964 100408
9964 382974
9964 435931
9964 70203
9964 377496
9964 361603
9964 29733
9964 103986
9964 142753
9964 221385
9964 355830
9964 356452
9964 399836
9964 395503
9964 390157
9964 208020
9964 19592
9964 138033
9964 132807
9964 445361
9964 37814
9964 199421
9964 44862
9964 81678
9964 36953
9964 202821
9964 178455
9964 357938
9964 431173
9964 290719
9964 147100
9964 426013
9964 277781
9964 23422
9964 402507
9964 120950
9964 165860
9964 26857
9964 131741
9964 148306
9964 167398
9964 168370
9964 431712
9964 15296
9964 399984
9964 184178
9964 19197
9964 211215
9964 435644
9964 137417
9964 346664
9964 165024
9964 173501
9964 214431
9964 216500
9964 400117
9964 231607
9964 229508
9964 385154
9964 283970
9964 15801
9964 187773
9964 423720
9964 105956
9964 37264
9964 259754
9964 85269
9964 121033
9964 180308
9964 211815
9964 169788
9964 112110
9964 206636
9964 248488
9964 180364
9964 10109
9964 148024
9964 107361
9964 292561
9964 86423
9964 51306
9964 207623
9964 209296
9964 26128
9964 162863
9964 127997
9964 230178
9964 75922
9964 198003
9964 201656
9964 241039
9964 295971
9964 350266
9964 100872
9964 377992
9964 26908
9964 17143
9964 428393
9964 164430
9964 404048
9964 103281
9964 404728
9964 45495
9964 140465
9964 401587
9964 354749
9964 218945
9964 249880
9964 185154
9964 60288
9964 295426
9964 76529
9964 337159
9964 370211
9964 135237
9964 293749
9964 456377
9964 77820
9964 76569
9964 80158
9964 159342
9964 188327
9964 200516
9964 287154
9964 135320
9964 171665
9964 363195
9964 418558
9964 327475
9964 314478
9964 139822
9964 13137
9964 50508
9964 235502
9964 413601
9964 449306
9964 294593
9964 194056
9964 246221
9964 78047
9964 130239
9964 423691
9964 45594
9964 290143
9964 421795
9964 87579
9964 346582
9964 387975
9964 350616
9964 140121
9964 427142
9964 216775
9964 397756
9964 297914
9964 10154
9964 64775
9964 221278
9964 455773
9964 306644
9964 47970
9964 64757
9964 131547
9964 405486
9964 68964
9964 106209
9964 184374
9964 64124
9964 429679
9964 250543
9964 291899
9964 150105
9964 427792
9964 244101
9964 239973
9964 287907
9964 38835
9964 126693
9964 138177
9964 236265
9964 438327
9964 157176
9964 302911
9964 32351
9964 223330
9964 236619
9964 95770
9964 21159
9964 418804
9964 179266
9964 58604
9964 173339
9964 233534
9964 218217
9964 13890
9964 32900
9964 81105
9964 416484
9964 10458
9964 156099
9964 51638
9964 201103
9964 94270
9964 88419
9964 409556
9964 172853
9964 205466
9964 52908
9964 60131
9964 211921
9964 79905
9964 74103
9964 31938
9964 202609
9964 279374
9964 243289
9964 131619
9964 120630
9964 114666
9964 282971
9964 139167
9964 443032
9964 244294
9964 73452
9964 222866
9964 416134
9964 160656
9964 228792
9964 414149
9964 20009
9964 155265
9964 158107
9964 441081
9964 258917
9964 86843
9964 149840
9964 278893
9964 203333
9964 225675
9964 22238
9964 20608
9964 230135
9964 151460
9964 401870
9964 208220
9964 64061
9964 245617
9964 19532
9964 62121
9964 107627
9964 63556
9964 83659
9964 217437
9964 207112
9964 37609
9964 167953
9964 83610
9964 173814
9964 241418
9964 242083
9964 225438
9964 56117
9964 207365
9964 145322
9964 364237
9964 214209
9964 214755
9964 196280
9964 427485
9964 134219
9964 209663
9964 427405
9964 228088
9964 261856
9964 179613
9964 296609
9964 206867
9964 23948
9964 21431
9964 219513
9964 192879
9964 32862
9964 315265
9964 220505
9964 103829
9964 211310
9964 81694
9964 222954
9964 392129
9964 351174
9964 369533
9964 20069
9964 44845
9964 196720
9964 118088
9964 322790
9964 412000
9964 241296
9964 58508
9964 141342
9964 336594
9964 143989
9964 83518
9964 217144
9964 16104
9964 10379
9964 202612
9964 286938
9964 302402
9964 83305
9964 175355
9964 60206
9964 148318
9964 34466
9964 147013
9964 116015
9964 245968
9964 179900
9964 210016
9964 419057
9964 84399
9964 146726
9964 403849
9964 55585
9964 295479
9964 191172
9964 282147
9964 452676
9964 364674
9964 286282
9964 33340
9964 384819
9964 454156
9964 235133
9964 202928
9964 361710
9964 14458
9964 177544
9964 194070
9964 44711
9964 221112
9964 260983
9964 307869
9964 91861
9964 245945
9964 234878
9964 221349
9964 404281
9964 287773
9964 249056
9964 322796
9964 221126
9964 80903
9964 121428
9964 241693
9964 19237
9964 244408
9964 17625
9964 143815
9964 404315
9964 178553
9964 122287
9964 214943
9964 179227
9964 316038
9964 440512
9964 131737
9964 335151
9964 306546
9964 272997
9964 155004
9964 192973
9964 130306
9964 278172
9964 207779
9964 303559
9964 339746
9964 135723
9964 123221
9964 13139
9964 134140
9964 240550
9964 354080
9964 122720
9964 184018
9964 78902
9964 423953
9964 198761
9964 26997
9964 32280
9964 39440
9964 221639
9964 417298
9964 318501
9964 303777
9964 101745
9964 161261
9964 215055
9964 372898
9964 10403
9964 130762
9964 355081
9964 206852
9964 360302
9964 107134
9964 19520
9964 192628
9964 69630
9964 208515
9964 166738
9964 234322
9964 224709
9964 137954
9964 50945
9964 281915
9964 78414
9964 149467
9964 284012
9964 285443
9964 17145
9964 392881
9964 46280
9964 166029
9964 206860
9964 158683
9964 128193
9964 222150
9964 94447
9964 83593
9964 93171
9964 427433
9964 361609
9964 217954
9964 223290
9964 382710
9964 134751
9964 19233
9964 395222
9964 11570
9964 175577
9964 11654
9964 79137
9964 51181
9964 194076
9964 115919
9964 143843
9964 10623
9964 243357
9964 418963
9964 46255
9964 17388
9964 380012
9964 428536
9964 423226
9964 17883
9964 282773
9964 219413
9964 105731
9964 178893
9964 343719
9964 322462
9964 259234
9964 38857
9964 178735
9964 190375
9965 10163
272110 67272
9968 10245
9968 10078
9968 224293
9972 256292
9972 113223
9976 11555
9979 10232
272131 50286
272131 11443
272131 12022
272131 47666
272131 27066
272131 64906
9990 56357
9990 166454
9990 153386
9991 39631
9991 185820
9991 29185
9991 14838
9991 127697
9991 174036
9991 158329
9997 148699
272141 37726
10005 357316
10005 365145
10005 398425
10005 109678
10005 393730
10005 398426
10005 350967
10005 385850
10005 337044
10005 300398
272159 14454
10016 107803
10016 67509
10018 39092
272163 294416
272164 338626
10025 32669
10025 156463
10025 81177
10030 220036
10030 346548
10030 96410
10033 402693
10033 29381
10033 15857
10033 97573
10033 92578
10033 56368
10033 47580
10053 15310
10053 39422
10053 42051
10054 168785
272202 359960
10072 10924
272218 292765
10074 72333
10077 342439
10077 289904
10077 432532
10077 74466
10077 422149
10077 182593
10079 62680
10087 211032
10087 73941
10087 372754
10088 10194
272233 71079
10101 130612
10107 299970
10110 14856
10111 312637
10111 303641
10111 230684
10111 239601
10111 79974
10111 183755
10111 237032
272260 261598
10121 436293
10121 129806
10121 97562
10121 11037
10121 144816
10121 115747
10121 425248
10121 44806
10121 359590
10121 148311
10121 13731
10121 281401
10121 217101
10121 260369
10121 391396
10121 108615
10121 73512
10121 46112
10121 143527
10121 137955
10121 167007
10121 87284
10121 432405
10121 50945
10121 217317
10121 155004
10121 315926
10121 368148
10121 111799
10121 48281
10121 133448
10121 198176
10121 234605
10121 70048
10121 257843
10121 18123
10121 233738
10121 247518
10121 44298
10121 403394
10121 112121
10121 231186
10121 105595
10126 114248
272280 344674
10139 22985
10144 139569
272294 101754
10154 12755
10154 39422
10159 72458
10159 21764
10159 46086
10159 20400
10159 122527
10159 25531
10159 368663
10159 19217
10159 78414
10159 83622
10159 10789
10159 131908
10159 117611
10159 224928
10159 196362
10159 20376
10159 167594
10159 88500
10159 123399
10159 68956
10159 13666
10159 54089
10159 281217
10159 239689
10159 154908
10159 121058
10159 140552
10159 136899
272307 59945
10167 242161
10176 14454
10178 43416
272337 154462
10194 150103
10203 157888
10203 12567
10203 45800
272354 76011
10217 33100
10217 94160
10217 18770
10217 111528
272362 275311
10223 11714
10232 152439
10232 215309
10232 42847
10232 254771
10232 237589
10232 160854
10232 336310
10232 25355
10232 86204
272378 14454
10236 39774
272382 59159
272386 79822
10248 125771
10257 90232
10257 355178
10257 90226
10257 51893
10259 45805
10259 177857
10259 132567
10260 51726
10260 81953
10262 73548
272407 12265
272418 83432
10277 124351
10277 40936
10277 348477
10278 282904
272429 27738
10287 91934
10287 23416
10287 54973
10287 162855
10287 280291
10287 135552
10287 186902
10287 162857
10287 154301
10287 429442
10287 192392
10290 120053
272439 294416
10299 284092
10299 13272
10300 11666
10300 39889
10300 44725
10308 72145
272461 26136
10320 370037
10323 10333
10333 15310
10334 10896
272480 14813
10338 86525
10352 206494
10353 13821
10353 121293
10357 53968
10357 13861
272507 120391
10365 136133
10365 22470
10365 52200
10369 68663
10377 187011
10392 10853
10392 26172
10392 13383
10394 37856
10409 35381
10409 10779
10412 15210
10418 60238
272565 250519
10426 50901
272580 106758
10437 59670
272590 58028
272597 272598
10458 77939
10458 48930
10464 205759
272609 35580
10466 14454
10470 50733
10470 11714
10479 16003
10480 44806
10480 222399
10480 231234
272625 38448
272631 39874
10491 94958
10492 14454
10495 50265
272646 81711
10502 50733
272654 16460
10526 11891
10527 12022
10552 26373
10556 71245
10556 302915
272708 16460
10574 226307
10574 179902
10574 388507
272726 35625
272728 166877
10593 130653
10593 44873
10595 14454
272744 51757
10614 104296
272760 238925
10622 98456
10622 212380
10622 26466
272778 53514
272778 73941
272779 252382
10639 10641
10639 245518
10645 348541
10645 150051
10645 440577
10647 276135
10647 183314
10647 213835
10647 322037
10647 455185
10647 231767
272802 127406
10659 174545
10673 77829
10673 98832
272817 273088
10681 20366
10681 148846
10681 19885
10681 27106
10684 30207
10685 184168
10685 213613
10685 27552
10685 72464
10685 382007
10685 30904
10685 11221
10685 52300
10685 34433
10685 75252
10688 192877
10689 117774
10691 100556
10694 185109
10694 48313
10694 98246
10694 247049
10694 233947
10694 292561
10694 51181
10694 413967
10694 212089
10694 108779
10694 207566
10694 295963
10694 127997
272846 14648
272849 14557
272849 187280
10708 107138
10708 83115
10708 11358
10711 304921
10711 108871
10716 447533
10716 19118
10716 241380
10721 79152
10722 279056
10742 12155
10742 18177
10745 176063
272900 14454
10779 39784
10779 15306
10789 48039
272938 68278
272948 214263
272960 364403
10816 98821
272963 68278
10821 123165
10822 13126
10822 54575
272967 122469
10837 71895
10843 105503
10848 142148
10853 106209
10853 327268
10853 125118
10853 189187
10853 150368
10853 217306
10853 240495
10853 108758
10853 89547
10853 126308
10853 123122
10853 103558
10853 11236
10853 224281
10853 120518
10853 401645
272997 60483
10855 258985
10855 331677
10855 201602
10855 208418
10855 186552
10855 234801
10855 169503
10855 254611
10855 432254
10855 416354
10855 14788
10855 127621
10855 216983
10855 295621
10855 434423
10855 344996
10855 153970
10855 203726
10855 38941
10855 216567
10855 134830
10855 50131
10855 154383
10855 367451
10855 208901
10855 191812
273010 14557
273010 34719
273010 31310
10877 12949
10883 14454
273028 59542
273029 84134
10896 172753
10896 98315
10896 17179
10896 180951
10896 147156
10896 253162
10896 170388
273043 14549
10899 14454
10909 41161
273054 33386
10916 80299
10916 88209
10916 159406
10916 127997
10916 88670
10916 194065
10916 93522
10916 121058
10916 37423
10916 291285
10916 223094
10916 68137
10916 15999
10916 61066
10916 231396
10916 114308
10916 19115
10916 112110
10916 133769
10916 48267
10916 151210
10916 276065
10916 303972
10916 88415
10916 42970
10916 349133
10916 15868
10916 219299
10916 141156
10916 40232
10916 95678
10916 107579
10916 141413
10916 167142
10916 42791
10916 190249
10916 201670
10916 104207
10916 12058
10916 158575
10916 73699
10916 61483
10916 11714
10919 32274
10922 67393
10922 133468
10924 216643
10924 39415
10924 370752
10924 96090
10924 222237
10924 440369
10924 229824
10924 128250
10924 217114
10924 199849
10924 324554
10924 210953
10924 229303
10924 67315
10924 349371
10924 52188
10924 123788
10924 134263
10924 140724
10924 160162
10924 20069
10924 205219
10924 175684
10924 111707
10924 67766
10924 405761
10924 148152
10924 26862
10924 259222
10924 211378
10924 11026
10925 134486
10925 194989
10925 122573
10925 139714
10925 125279
10925 172746
10925 100779
10925 24654
10929 29372
10938 379613
10939 220561
10939 224709
10942 446840
10942 417632
10942 163456
10942 234049
10942 154662
10942 117262
10942 223887
10942 147485
10942 144975
10942 381216
10942 91498
10942 44975
10942 171438
10942 33427
10948 77430
10953 142668
10956 36344
10964 55546
10964 115447
10964 99369
10964 31325
10964 136842
10964 19524
10964 162761
10964 281891
10964 152526
10964 121640
10964 356155
10964 368677
10964 13239
10964 108134
10964 211325
10964 105683
10964 391380
10964 187966
10964 306722
10964 116571
10964 182012
10964 197433
10969 84087
10969 39782
273126 117882
11002 428022
273146 37341
11008 14968
11008 24215
11018 11710
11022 50901
273171 218265
11028 13210
273176 273177
11032 17966
11040 102861
11066 152454
11066 15117
11066 34501
11093 127656
11093 172471
11096 153948
11098 58238
11098 30202
11098 286509
273245 38250
273281 27738
11139 199046
11139 198790
11139 285025
11139 444368
11139 49254
11139 372225
11139 387079
11139 212440
11139 337337
11139 408845
11139 249079
273284 121293
11141 55754
273303 68278
273304 170960
273312 14454
11171 34613
11177 147555
11177 102776
11186 36645
11201 255196
11202 121946
11204 54575
11204 111452
273349 13137
11207 126203
11207 200416
11209 442081
11209 11666
11212 42297
11212 199727
11219 42182
273376 19913
11230 15210
11230 18168
11230 11714
273385 315021
273385 260764
273388 248001
11248 213545
11249 13150
11249 51179
11249 95773
11263 13383
11269 166548
11269 42947
11272 152301
11274 120537
273421 27672
273435 284506
273456 19913
273456 410298
273456 330403
11317 280976
11328 409269
11328 52284
11331 135540
11338 386196
11338 156512
11337 238576
11337 28965
11341 12895
11341 12816
11341 28991
11341 11362
11348 103824
11357 36656
11358 145821
11360 83494
11361 39667
11362 52302
11362 154594
11362 32102
11362 11714
11362 98172
11364 73684
11364 425016
11364 157316
11364 191610
11364 344154
11364 24437
11365 61781
11365 12899
11365 67315
11369 165192
11370 293127
11370 337302
11371 146522
11374 41228
273523 345746
273524 58049
11385 14454
273534 308286
273537 120347
11394 77918
11393 25263
11396 26969
11401 139897
273546 14454
11402 190937
273552 52469
273557 14584
11413 136910
11413 442974
11415 171349
11415 232697
273571 37341
273571 11792
11432 115873
11432 157316
11432 297407
11436 21302
11436 135822
11436 18915
11439 18886
11442 16011
11443 36324
11443 443810
11443 184295
11443 220359
11443 14475
11443 247416
11443 188447
11443 199313
11443 283382
11443 211510
11443 228927
11443 257710
11443 201979
11443 136453
11443 113774
11443 162369
11443 144748
11443 99516
11443 384229
11443 43461
11443 332615
11443 340900
11443 240629
11443 158733
11443 371949
11443 221284
11443 292976
11443 279953
11443 220884
11443 173272
11443 311185
11443 254057
11443 234691
11443 54606
11443 222849
11443 402004
11443 176888
11443 394822
11443 152182
11443 423974
11443 146431
11443 15339
11443 243428
11443 358374
11444 154230
11444 426267
11444 400659
11444 421847
11444 418919
11444 376375
11444 187081
11444 189340
11444 196299
11444 191371
11444 438379
11444 210755
11448 148687
273600 189515
273606 96380
11473 56622
11478 14454
273626 49179
11482 79531
11482 28985
11489 91924
11490 27143
11490 50679
11496 137876
11497 13249
11500 16425
11507 93051
11507 60312
273661 356782
11519 33088
11521 46510
11521 146625
11521 50676
11521 44183
11521 13249
11516 54094
11544 11714
11555 91812
11555 126446
11555 93740
11555 16254
11555 15295
11555 81616
11555 74974
11555 113223
11555 50241
11555 82167
11555 14476
11555 62480
11555 285735
11555 77562
11555 133714
11555 48283
11555 39307
11555 70296
11555 113779
11555 22399
11555 134431
11555 163970
11555 19865
11555 62058
11555 51374
11555 415765
11555 130733
11555 130701
11555 366425
11555 126447
11555 93120
11555 93126
11555 242848
11555 174227
11555 34299
11557 110498
11557 18547
11566 195849
11566 39852
11566 159171
11566 14454
11570 324038
11588 33990
11588 68042
11588 165145
11589 52793
11591 115553
11591 12891
11599 42177
11599 184073
11603 27978
11603 348686
273753 57105
273753 14584
273754 64192
273756 55951
11617 27976
11620 381854
11620 56233
11620 58396
11620 166131
11620 306450
11620 247364
11620 115990
11625 395439
11626 29234
273771 14648
11629 52810
11629 381197
11629 418689
11638 52908
11660 208509
11660 134051
11660 253295
11660 105373
11666 55598
11666 117641
11666 54984
11668 50901
11673 83105
11692 31171
11692 50957
11692 195528
11692 200082
11692 58864
11692 392102
11692 58357
11692 123237
11692 348522
11692 288158
11692 13798
11692 23972
11692 347463
11692 13795
11706 61789
11706 230325
11706 278906
11706 26890
11706 71800
11706 237661
11710 78926
11710 81483
11710 448067
11710 222281
11710 324232
11710 17620
11710 389928
11710 189929
11710 163236
11710 313826
11710 132929
11710 150581
11710 26890
11710 93988
11710 92888
11710 202199
11710 60481
11710 191192
11710 211406
11710 255235
11710 150579
11710 164106
11710 161564
11710 15395
11710 290771
11710 169075
11710 313437
11711 35799
11711 23061
11711 220581
11711 378617
11711 23423
11714 211314
11714 38848
11714 145323
11714 200860
11714 169545
11714 60882
11714 376336
11714 36261
11714 18085
11714 200389
11714 43157
11714 244453
11714 442050
11714 216612
11714 365460
11714 162857
11714 200063
11714 100957
11714 32123
11714 19196
11714 152114
11714 211046
11714 171481
11714 12892
11714 71277
11714 80648
11714 238044
11714 76190
11714 91870
11714 33980
11714 96981
11714 12812
11714 330020
11714 30374
11714 152037
11714 90280
11714 254120
11714 39835
11714 13524
11714 173336
11714 212909
11714 39095
11714 74179
11714 353140
11714 176662
11714 326830
11714 214438
11714 48196
11714 428229
11714 75449
11714 288948
11714 64871
11714 122767
11714 380906
11714 34470
11714 141084
11714 416145
11714 403346
11714 50620
11714 82905
11714 391771
11714 32102
11714 285999
11714 150966
11714 221145
11714 105373
11714 224441
11714 138256
11714 17562
11714 91959
11714 229948
11714 404116
11714 259772
11714 41079
11714 108278
11714 158575
11714 94496
11714 85611
11714 222532
11714 120111
11714 149507
11714 49766
11714 249839
11714 252348
11714 211815
11714 178473
11714 14790
11714 37203
11714 108632
11714 136963
11714 42638
11714 67319
11714 76738
11714 216904
11714 203999
11714 25524
11714 55832
11714 229560
11714 66715
11714 52987
11714 152302
11714 26212
11714 181721
11714 154116
11714 198685
11714 152165
11714 60765
11714 375260
11714 421389
11714 52259
11714 107170
11714 124805
11714 61059
11714 137529
11714 65734
11714 132309
11714 198452
11714 118869
11714 40793
11714 51428
11714 40076
11714 303216
11714 21460
11714 319888
11714 192877
11714 378620
11714 228699
11714 44609
11714 52793
11714 190884
11714 51255
11714 192806
11714 221524
11714 225549
11714 403818
11714 186828
11714 77646
11714 139218
11714 384402
11714 165624
11714 190169
11714 238085
11714 97577
11714 77826
11714 100500
11714 137589
11714 100185
11714 42084
11714 238173
11714 147156
273859 68278
273863 330698
11723 216624
273868 57261
273871 105232
11728 14454
273880 349139
273888 19913
273905 18450
273921 63856
11792 398486
11792 339982
11792 366234
11792 382324
11792 108608
11792 448381
11792 57105
11792 281909
11792 301572
11792 54453
11792 407138
11792 85452
11792 402304
11792 199254
11792 288448
11792 260208
11792 374591
11792 354434
11792 316116
11792 342931
11792 379329
11792 373196
11792 88391
11792 248536
11792 76864
11792 410199
11792 406856
11792 243293
11792 350476
11792 298873
11792 325385
11792 333389
11792 37311
11792 108572
11792 248721
11792 136607
11792 359508
11792 129373
11792 183512
11792 230397
11792 442958
11792 150239
11792 149523
11792 398135
11792 228672
11792 284141
11792 349616
11792 322084
11792 443115
11792 236128
11792 402455
11792 447072
11792 389660
11792 352909
11792 310844
11792 119578
11792 416113
11792 440744
11792 22841
11792 249919
11792 194417
11792 417551
11792 229757
11792 250365
11792 128715
11792 429800
11792 441299
11792 244362
11792 401238
11792 406160
11792 299174
11792 236771
11792 403249
11792 292506
11792 172924
11792 68605
11792 353382
11792 338233
11792 439138
11792 297321
11792 164752
11792 228033
11792 350167
11792 284308
11792 407376
11792 408314
11792 446313
11792 170419
11792 384842
11792 307401
11792 177002
11792 298998
11792 21615
11792 333262
11792 162332
11792 429761
11792 181586
11792 163863
11792 412606
11792 173993
11792 415806
11792 67135
11792 37309
11792 411754
11792 389248
11792 302300
11792 44139
11792 92971
11792 446493
11792 162301
11792 87884
11792 250523
11792 98945
11792 352809
11792 320115
11792 412402
11792 215267
11792 284107
11792 91653
11792 445495
11792 162178
11792 304066
11792 422792
11792 161156
11792 294654
11792 392511
11792 425582
11792 389661
11792 337719
11792 174920
11792 392756
11792 161203
11792 46959
11792 48945
11792 392824
11792 324804
11792 319589
11790 68599
11790 173161
11790 156670
11790 183128
11790 137376
11790 76992
11790 201479
11795 133983
11808 54984
273955 294899
273955 295319
273955 331634
11822 450113
11826 14454
273976 14454
11840 14813
11844 317456
11844 57026
11844 306380
11844 161048
11844 101937
11844 350322
11844 348202
11844 454145
11844 131187
11844 146127
11844 128971
11844 191049
11844 121274
11844 152718
11844 370091
11844 125617
11844 445417
11844 212784
11844 101336
11844 38933
11844 101474
11844 318048
11844 38703
11844 107302
11844 101465
11844 101390
11844 128555
11844 164305
11844 49668
11844 435605
11844 333794
11844 145087
11844 172521
11844 178626
11854 277236
11854 113060
11854 151416
11854 286779
11854 43428
11854 24667
11854 205741
274001 101738
11861 12266
11867 106634
11867 209199
11867 156066
11873 281077
11880 259840
11880 63120
11880 137587
11882 380989
11882 313977
11882 184168
11882 291301
11882 429981
11882 426848
11882 163029
11882 85424
11882 215092
11882 228880
11882 223767
11882 257543
11882 360818
11882 47159
11882 290984
11882 175952
11882 136111
11885 146597
11891 321764
11891 52880
11891 448370
11891 378310
11891 82732
11891 253746
11891 400439
11891 399281
11891 278642
11891 343048
11897 14454
11900 120347
11905 49179
11911 235763
11912 25077
11918 54856
11919 278919
11919 87622
11919 243170
11919 292988
11921 424690
11921 55591
11921 417862
11921 255126
11921 315594
11921 154902
11921 193030
11921 433072
11921 36491
11921 101773
11921 346626
11921 184920
11921 25850
11921 161466
11921 50391
11921 436392
11921 354944
11921 411279
11921 244133
11921 303137
11921 93423
274066 294416
274070 294416
11931 180894
11931 120915
11936 68499
11945 131022
11945 121924
11945 204507
11945 223238
11945 52261
11945 32925
11945 79477
11945 170637
11945 123399
11945 45391
11950 163976
11953 84647
11953 86501
11953 27483
11956 83139
11956 73567
11956 230991
11956 291081
11959 221703
11959 358033
11967 287978
11967 93356
11967 93692
11974 67688
11977 66750
11977 79771
274131 153972
11998 338681
11998 54064
11998 35421
11998 105731
11998 80565
11998 73724
11998 279967
11998 201982
11998 304697
11998 178149
274147 132195
12011 107422
12018 106156
12022 372735
12022 47998
12022 69611
12022 402476
12022 38061
12022 103439
12022 122928
12022 53575
12022 126308
12022 239464
12022 183977
12022 258665
12022 450463
12022 452911
12022 197101
12022 53694
12022 92886
12022 190373
12022 326991
12022 114152
12022 51886
12022 327935
12022 141674
12022 84902
12022 216056
12022 234933
12022 90478
12022 87919
12022 112683
12022 291943
12022 187966
12022 230252
12022 22470
12022 215563
12022 19870
12022 221491
12022 148436
12022 388449
12022 389890
12022 199793
12022 215055
12022 78054
12022 308711
12022 208756
12022 155354
12022 247552
12022 279373
12022 304290
12022 216309
12022 260464
12022 279643
12022 236232
12022 73835
274177 48621
12037 334724
274183 294416
12040 23202
274197 125309
274197 60524
274200 14549
12070 94818
274214 37832
274224 14577
12081 14454
274231 226721
274233 226721
274233 59542
274233 294416
12094 15856
274245 167359
274246 37803
274258 60035
12120 36510
315032 128559
12142 26004
12149 100201
12156 23071
12158 235168
12159 47666
12159 130397
12159 18168
12159 16078
12174 74014
274320 43872
12178 94272
274326 260996
12183 350359
12209 436703
12209 27630
12209 123172
274354 14454
274356 14454
274357 13249
274376 180014
274381 98136
12243 256645
12243 38402
12246 12483
12248 12483
12251 23247
12251 76703
12251 26495
12251 389134
12251 276687
12251 313757
12251 230089
12251 425919
274393 14454
12253 23809
12253 231085
12253 315625
12253 234398
12253 109552
12253 238203
12253 12310
12259 153165
12259 287909
12259 401549
12259 147007
12259 294359
12259 87975
12265 96542
12265 453013
12265 448090
12265 196679
12265 442964
12265 416863
12265 389875
12265 296875
12265 233817
12265 315712
12265 419523
12265 288908
12265 388630
12265 90090
12265 170188
12265 314963
12265 431605
12265 234299
12265 330879
12265 75829
12266 251578
12266 50078
12266 253422
12266 299921
12266 205422
12269 304313
12270 22350
12270 12601
12270 87964
12270 138654
12270 448714
12270 316600
12270 134704
12270 90650
12270 414689
12270 12405
12270 23674
12270 23243
12270 12329
12270 128618
12270 286528
12270 437776
12270 382401
12270 318844
12270 22287
12270 372300
12270 39316
12270 390983
12270 21676
12270 154521
12270 342251
12270 25430
12270 107436
12270 84991
12270 184897
12270 442735
12270 190240
12270 130432
12270 149186
12270 400994
12270 40733
12270 40130
12270 388366
12276 359499
12276 84072
12276 141739
12283 424617
12283 99742
12309 12338
12310 26584
274455 25094
274457 294846
12315 16801
12318 108346
12318 342164
12318 159479
12318 322718
12318 42861
12318 415842
12318 248674
12318 119006
12318 325491
12318 280382
12318 112828
12318 25077
12318 376315
12318 315917
12318 257025
12318 363496
12318 33315
12318 114403
12318 294920
12318 313657
12318 75652
12318 277122
12318 312236
12318 134790
12318 389129
12318 398984
12318 80761
12318 394628
12318 298541
12318 441123
12318 240984
12318 417687
12318 451272
12318 154570
12318 124512
12318 22084
12318 250689
12318 443987
12318 373182
12318 334599
12318 329615
12318 215908
12318 431817
12318 28560
12322 152466
274481 16460
12338 29836
12338 438216
12338 253091
12340 12510
12340 114788
12342 289037
12342 139861
12342 248675
12342 274879
12342 163039
12342 162378
12355 82019
12359 70095
12359 23723
274504 14454
12362 146612
12363 27635
12374 34074
274518 63741
12375 212999
12375 235379
12375 307123
12375 381117
274522 139614
274522 37545
12379 434861
12383 118853
12383 38365
12383 40624
12394 67032
12401 28561
12402 97394
274548 340730
12404 21634
12404 430445
12409 32715
12409 75443
274555 35366
274564 16746
12423 12454
12423 127568
12424 158795
12424 257025
12424 238973
12424 126670
12427 12510
12434 23815
274594 37545
12456 23771
12462 294938
12462 16801
12462 40669
12463 434293
12463 235131
12463 355473
12463 454033
12463 309833
12463 220449
12463 226256
12463 454891
12463 122416
12463 432456
12463 414840
274610 46236
12471 12473
12471 12510
12473 118998
12473 436529
12473 79794
12473 79331
12473 297741
12473 441520
12473 85809
12473 445332
12473 442282
12473 119029
12473 419068
12473 344393
12473 111553
12473 324886
12473 164417
12473 441544
12473 450712
12473 154663
12473 433310
12473 236847
12473 400229
12473 227319
12473 393853
12473 355102
12473 250689
12473 287879
12473 87951
12473 291580
12473 384569
12473 285297
12473 447469
12473 359991
12473 170242
12473 220828
12473 373424
12473 34052
12473 277100
12473 140226
12473 220737
12473 313636
12473 442997
12473 319443
12473 253147
12473 98911
12473 361150
12473 320437
12473 314981
12473 427342
12473 294919
12473 22084
12473 305240
12473 418832
12473 165217
12473 114496
12473 87937
12473 428654
12473 12617
12473 319797
12473 300948
12473 431817
12473 342164
12473 392048
12473 412017
12473 295643
12473 182865
12475 443404
12475 375770
12475 396201
274620 16801
274616 331735
274616 104802
12478 401549
12478 109420
12478 322146
12478 320791
12482 305265
12482 413855
12482 333590
12482 146999
12482 278553
12483 12486
12483 114513
12483 174588
12483 40137
12483 100473
12483 188382
12483 12613
12483 79832
12483 21554
12483 384235
12483 416959
12483 87966
12483 231484
12483 255990
12483 296403
12483 32710
12483 154570
12483 22000
12483 213425
12493 140221
12493 157933
12497 198602
274642 68702
12501 46181
12502 77836
12508 304540
12508 417769
12508 288722
12508 146914
12510 285814
12510 368219
12510 294422
12510 193924
12510 336351
12510 119015
12510 313655
12510 146986
12510 412032
12510 243319
12510 22284
12510 442735
12510 229811
12510 38365
12510 309093
12510 314016
12510 182145
12510 291874
12510 370244
12510 275738
12510 320643
12510 344923
12510 337008
12510 126615
12510 253088
12510 406449
12510 329290
12510 397878
12510 111879
12510 405858
12510 384676
12510 308830
12510 126668
12510 344513
12510 377152
12510 104340
12510 254195
12510 455260
12510 391293
12510 101690
12510 285642
12510 67020
12510 433939
12510 362334
12510 283723
12510 429631
12510 389828
12510 21525
12510 424182
12510 389129
12510 27630
12510 189294
12510 421395
12510 333110
12510 351509
12510 453520
12510 23674
12510 173841
12510 350532
12510 372983
12510 234404
12510 355102
12510 433857
12510 209722
12510 423618
12510 396201
12510 280924
12510 234421
12510 439412
12510 343844
12510 227465
12510 314987
12510 322552
12510 23882
12510 289034
12510 79790
12510 428509
12510 134785
12510 248742
12510 237969
12510 444408
12510 27089
12510 333455
12510 172786
12510 333006
12510 25078
12510 128915
12510 403765
12510 405111
12510 45762
12510 124457
12510 235382
12510 51084
12510 43715
12510 288103
12510 234408
12510 433055
12510 383603
12510 304313
12510 175494
12510 356455
12510 443509
12513 227327
12513 253546
12513 390983
12513 369230
12513 12612
12513 243319
12513 419679
12513 146975
12513 426896
12513 379955
12513 127661
12513 417335
12513 372603
12513 185909
12513 450558
12513 26603
12513 392048
12513 408618
12513 126670
12513 219392
12513 26610
12513 430751
12513 29841
12513 384039
12513 169871
12513 21658
274662 59397
12519 114439
274663 274784
274663 59531
274690 232715
274696 17576
274699 44371
274702 102316
274702 195658
274702 252734
274702 35366
274702 141168
12561 18693
12567 427827
274716 68278
12575 202893
12580 12583
12580 250519
274731 86372
274731 96820
12594 184153
12595 65942
12595 16801
12598 17157
274748 70958
12612 21990
274757 234040
274759 347821
274761 369750
12629 41358
12632 97768
274782 48532
12647 29387
12652 346907
12657 85384
12657 95295
12662 77181
12662 133864
12662 14454
12662 63327
12662 29485
12667 379887
12667 174413
12669 142499
12672 176444
12687 325059
12687 260590
12687 43920
12687 125642
12687 235810
12687 80203
12687 164857
12687 41134
12687 282831
12687 146544
12687 82858
12687 196729
12687 432088
12687 24030
12687 238470
12687 408696
12687 96157
12687 240735
12687 242754
12687 366211
12687 180479
12687 239151
12687 140352
12687 401445
12687 303828
12687 56988
12687 200384
12687 315648
12687 347077
12687 223063
12687 175301
12687 231538
12687 297413
12687 453468
12687 178311
12687 181906
12687 448859
12687 15405
12687 361845
12687 311901
12687 25212
12687 164709
12687 48440
12687 456294
12687 126228
12687 51546
12687 421290
12687 28577
12687 449854
12687 372969
12687 99331
12687 361048
12687 256067
12687 225339
12687 414299
12687 98735
12687 227522
12687 102094
12687 19133
12687 260453
12687 86992
12687 188582
12687 119723
12687 14361
12687 396029
12687 210241
12687 284765
12687 230864
12687 25963
12687 369729
12687 282374
12687 198791
12687 78552
12687 171025
12687 108318
12687 198227
12687 154964
12687 242783
12687 91067
12687 91145
12687 158014
12687 121644
12687 185257
12687 247229
12687 360648
12687 119234
12687 118460
12687 174431
12687 240747
12687 41680
12687 117415
12687 146542
12687 436784
12687 434890
12687 422320
12687 329267
12687 112075
12687 197573
12687 241942
12687 349539
12687 318281
12687 399099
12687 115638
12687 412583
12687 208580
12687 236332
12687 51770
12687 84050
12687 121616
12687 215644
12687 208970
12687 224064
12687 384094
12687 241389
12687 97471
12687 400871
12687 215303
12687 346932
274831 68278
12720 107226
274876 122469
12734 40228
274879 22004
12736 19742
12744 132449
12755 319385
12755 321955
12755 27305
12755 135825
12755 95609
12755 359691
12755 348971
12755 164893
12755 143663
12755 339784
12755 29485
12755 121058
12755 213622
12755 261615
12755 48246
12755 198758
12755 94290
12755 376906
12755 217310
12755 47226
12755 435702
12755 184220
12755 46063
12755 216584
12755 172524
12755 224770
12755 72710
12755 15040
12755 325685
12755 108652
12755 212326
12755 212572
274917 58028
274940 115382
12801 71517
12801 165520
12801 418106
12801 165515
12801 130917
12804 281507
274949 27738
274957 121076
12816 156905
12817 21361
12821 57174
12824 44273
274979 28990
12842 18314
12842 56044
12842 207259
12853 40348
12860 18915
275005 52469
275007 91434
12864 22229
275020 16460
12878 45391
275033 43214
275034 22004
12891 25065
12891 179907
12891 189038
12891 294639
12891 30065
275036 34963
12895 13890
12895 30069
12895 67515
12899 25065
12899 52288
12899 91688
12899 12928
12899 42182
12900 64906
12900 12904
12904 63629
275056 200712
12928 138771
12928 235965
12928 71311
12928 123154
12928 258638
12928 41729
12928 70319
12928 212909
12928 188858
12928 77827
12928 204932
12928 302229
12928 210869
12928 228371
12928 99293
12928 47759
12928 88817
12928 161880
12928 138282
12928 16932
12928 166450
12928 344957
12928 143543
12928 41854
12928 123155
12928 225219
12928 163235
12928 446622
12928 92434
12928 143162
12928 91867
12928 47159
12928 15210
12928 216056
12928 86049
12928 246511
12928 25346
12928 90288
12928 73710
12928 192549
12928 83829
12928 358901
12928 44290
12928 76413
12928 95273
12928 204931
12928 313441
275076 280682
12938 161194
12938 98992
12938 404683
275092 14454
12949 85505
12949 43852
12949 92604
12949 82468
12949 131668
12949 22857
12949 44652
12949 82475
12949 151949
12949 103359
12961 45082
12961 19870
12966 187701
12966 24575
12966 81181
12966 31624
12966 287719
12966 17527
275112 121293
12972 118464
12972 13821
275125 72574
275136 294416
12997 40731
13001 167841
13001 242711
13001 138999
13001 197112
275151 34719
275155 175586
275157 14454
13017 213389
13024 185376
275179 14454
13042 135110
275190 212219
13052 42182
13056 35684
13055 55664
13055 144586
275202 199877
13061 106953
275205 34719
13077 167943
13078 13139
13078 16011
13078 429671
13078 80881
13089 13795
275237 88697
13094 50901
13113 30597
13113 19358
13113 73835
13117 121428
13117 23976
13117 90084
13117 13131
13123 209129
13123 118587
13123 126308
13123 37428
13123 13798
13123 104618
13123 197810
13123 15513
13123 36503
13123 45248
13123 201587
13123 36919
13123 70711
13123 13139
13126 83819
13126 193759
13126 259849
13127 37428
13127 162863
13127 108134
13127 134106
13127 132319
13131 94232
13131 17145
13134 324220
275280 16460
13137 72973
13137 420936
13137 194207
13137 171806
13137 244404
13137 220658
13137 380591
13137 238342
13136 408527
13136 15801
13136 23940
13136 186897
13136 22453
13139 23956
13139 17145
13139 27823
13139 35389
13141 392806
13141 406474
13141 160068
13141 121414
13141 60613
13141 48039
13141 261259
13141 20273
13141 27923
13141 383490
13141 25194
13141 200118
13141 341232
13141 297383
13141 338681
13141 144109
13141 340350
13141 89994
13138 322144
13150 259236
13150 32226
275309 23866
275314 13297
275321 102144
275344 19908
275350 105339
13209 15207
275363 193557
13220 50733
13220 26367
275370 14454
13226 138242
13234 107045
13234 66041
13239 81583
13239 13250
13239 212288
13239 83614
13243 14454
13248 18875
13249 246625
13249 111539
13249 148634
13249 38773
13249 401088
13249 231083
13249 309801
13249 400635
13249 192222
13249 385693
13249 72418
13249 297581
13249 177588
13249 64328
13249 253199
13249 161395
13249 232476
13249 59870
13249 50676
13249 345127
13249 197319
13249 152260
13249 83465
13249 54089
13249 92847
13249 156607
13249 125075
13249 243785
13249 134715
13249 308267
13249 433647
13249 216512
13249 185050
13249 203340
13249 145108
13249 161543
13249 167465
13249 89846
13249 29271
13249 129122
13249 24268
13249 279816
13249 385414
13249 213421
13249 33095
13249 28191
13249 282817
13249 179113
13249 200693
13249 90285
13249 59852
13249 64431
13249 287892
13249 456138
13249 281660
13249 339572
13249 32596
13249 109573
13249 290824
13249 44535
13249 281858
13249 73654
13249 442319
13249 453677
13249 33081
13249 65314
13249 297522
13249 169919
13249 143701
13249 50719
13249 185047
13249 136225
13249 109937
13249 136214
13249 301475
13249 24875
13249 152256
13249 160753
13249 133501
13249 208635
13249 143491
13249 112864
13249 283240
13249 42383
13249 199409
13249 41119
13249 112520
13249 24862
13249 115223
13249 111528
13249 66197
13249 136224
13249 112656
13249 157215
13249 225392
13249 104968
13249 176318
13249 156156
13249 233171
13249 385608
13249 86787
13249 277225
13249 87317
13249 91154
13249 343384
13249 160729
13250 115103
13250 326343
13254 23556
275399 16323
13261 23956
13261 13262
13262 107596
275406 54030
275415 111036
275418 89019
13278 61336
13278 223804
13286 132027
13286 168933
13287 226039
13297 134640
13301 226339
13301 16066
13318 75535
13320 161907
13320 231338
13328 39752
13328 81203
13341 255723
275488 14454
275493 358536
13363 25007
275513 37803
275518 26139
13383 80128
13383 179604
13383 194606
13383 345450
13383 20389
13383 218785
13383 96332
13383 66003
13383 47226
13383 212178
13383 84907
13383 25883
13383 185070
13383 120394
13383 217796
13383 145867
13383 32434
13383 207606
13383 229516
13383 142004
13383 18492
13383 30272
13383 251796
13383 288504
13383 77820
13383 155837
13383 41159
13383 69841
13383 286153
13383 18043
13383 308802
13383 399214
13383 145837
13383 190371
13383 65604
13383 162882
13383 453441
13383 384449
13383 159342
13386 99293
13386 30400
13386 26830
13386 251706
13386 143984
13386 55536
13393 45038
13393 29394
13393 136083
13393 241566
13393 198230
275539 289548
13407 152084
13409 55532
13413 40192
275562 54094
13420 23937
13434 69644
13442 193481
275588 31510
13450 416499
13460 20373
275617 51043
13481 15857
275634 309584
13494 23801
13498 40242
13502 103921
13502 137246
13502 137321
13502 13506
275647 306389
13506 174448
13506 137321
13506 235572
13506 137313
13506 137273
13506 137309
13506 137242
13506 137240
13506 137241
13506 137284
13506 137324
13506 137251
13506 137287
13506 137330
13506 137264
13506 47218
13506 304210
13506 137246
13506 137271
13506 137285
13506 137279
13506 137331
13506 137302
13506 103921
13506 137311
13506 137319
13506 137272
13506 13510
13506 13509
13506 137297
13506 137308
13506 390566
13506 137328
13506 137307
13506 59027
13506 137325
13506 59026
13506 137296
13506 137322
13506 448604
13506 137290
13506 137306
13506 125946
13506 160541
13506 137237
13507 167616
13503 297085
13503 90528
275650 16313
275654 64976
13510 137271
13510 59027
13510 59026
13510 103921
13510 137246
13510 137321
275657 124850
13509 137242
13509 59027
13509 103921
13509 137321
13518 171814
13518 101773
13518 124879
13518 213532
13518 404758
13518 206732
13519 163970
13519 418109
13524 16011
275681 133572
275684 28174
13548 67814
13548 195548
13551 127174
13551 308212
13551 16088
13551 210953
13554 245121
275707 288239
13565 14454
13584 16002
13584 30239
13584 20376
13584 13798
13584 163640
13584 180194
13584 156716
13584 233964
275732 14454
13603 372680
13603 103402
13603 220954
13603 78361
13603 138445
13603 217883
13603 259225
13603 292968
13603 62345
13603 32615
13603 107612
13603 167039
13603 188666
13603 45077
13606 13639
13608 13633
13609 14725
13609 316194
13609 123417
13614 37726
13618 22523
13618 37737
13618 359830
13618 56479
13618 37747
13627 18168
13627 38941
13633 154857
13633 193262
13633 258870
13633 295661
13633 167010
13633 406301
13633 123419
13633 258064
13633 88029
13633 341775
13633 211790
13633 203072
13633 388363
13633 123702
13633 97166
13633 27848
13633 182869
13633 114659
13633 141620
13633 111499
13633 174084
13633 121289
13633 62388
13633 256087
13633 195442
13633 208549
13633 346613
13633 177482
13633 260659
13633 184375
13633 342160
13633 451482
13633 123417
13633 47489
13633 197770
13633 302888
13633 253962
13633 47509
13638 238592
13638 135029
13638 18583
13639 184726
275796 309133
13660 24669
13660 426718
13660 203584
275812 125577
13673 53324
13675 24676
13684 22185
275838 143752
13700 25248
13700 80880
13700 135582
275856 35465
13737 161404
13745 26684
13745 13765
13765 66089
13765 212781
13765 355728
13765 276458
13765 101373
13765 276868
13765 296104
13765 188053
13765 316548
13765 302395
13765 54458
13765 187431
13765 307194
13765 300766
13765 26677
13765 310211
13765 291898
13765 258910
13765 55242
13765 390280
13765 308425
13765 66798
13765 258751
13765 26679
13765 282687
13765 92157
13766 49123
13766 140559
13766 67504
13766 16003
275912 179099
275914 68278
275919 75261
275922 14664
13778 211812
13778 58597
13778 444789
13778 143674
13778 218004
13778 239684
13778 13798
13778 186674
13778 63931
13778 394849
13778 355813
13778 130110
13778 423159
13778 60035
13778 60835
13778 164694
275928 62656
13795 153927
13795 401447
13795 20718
13795 76165
13795 276338
13795 27781
13795 16568
13795 23399
13795 230068
13795 174566
13795 208078
13795 73217
13795 113366
13795 132319
13795 108134
13795 161570
13795 22343
13795 99636
13795 15857
13795 89784
13795 444840
13795 94182
13795 136213
13795 91435
13795 245959
13795 24904
13795 103961
13795 13798
13795 55754
13795 231548
13798 234513
13798 138769
13798 378033
13798 19349
13798 97010
13798 230987
13798 30015
13798 53143
13798 209134
13798 39853
13798 51181
13798 20718
13798 215328
13798 233364
13798 145232
13798 284222
13798 436608
13798 228066
13798 153572
13798 31171
13798 159290
13798 39889
13798 288158
13798 101238
13798 449432
13798 48540
13798 430661
13798 22288
13798 84647
13798 346910
13798 196658
13798 41354
13798 23205
13798 206636
13798 187282
13798 248304
13798 104544
13798 33569
13798 409750
13798 212194
13798 222374
13798 65572
13798 25014
13798 244393
13798 161691
13798 249582
13798 296598
13798 304080
13798 351935
13798 183376
275943 285252
275954 57105
275954 16527
275955 34810
13821 202672
13821 81405
13821 75856
13821 251706
13821 137648
13821 123109
13821 327325
13821 15766
13821 303865
13821 38222
13821 95973
13821 261259
13821 97520
13821 166169
13821 162417
13821 393198
13821 163970
13821 188814
13821 240768
13821 57337
13821 48746
13821 59733
13821 92975
13821 118883
13821 79642
13821 123501
13821 184363
13821 86631
13821 318926
13821 183377
13821 176522
13821 216369
13821 23546
13821 57335
13821 148436
13821 448352
13821 84871
13821 84902
13821 49179
13821 285443
13821 220886
13821 91546
13821 226536
13821 133047
13821 391306
13821 375775
13821 438665
13821 192349
13821 198300
13821 52495
13821 308711
13821 404683
13821 257298
13821 163817
13821 380697
13821 193156
13821 147076
13821 140809
13821 348321
13821 31966
13821 372806
13821 96094
13821 135486
13821 369274
13821 70457
13821 181752
13821 13876
13821 31429
13826 433665
13829 126456
13832 368004
13842 24915
13842 45843
13842 36911
275998 14454
276000 54550
13890 22470
13890 36965
13890 52240
13892 251814
13892 390453
13892 224009
13893 216076
13893 211129
13893 27738
13893 99369
13894 121847
276039 19870
13895 87651
13900 81927
13908 147651
13916 25989
13916 179576
13916 176723
13920 98392
13920 391616
13920 168913
13920 302233
13920 73168
13920 29403
13920 196014
13925 50059
13934 73611
13934 174495
13934 90461
276079 36371
13938 113263
13938 24681
13938 128808
13938 84427
13938 24691
13938 41966
13938 181755
13938 159517
13938 171127
13938 19865
13938 131692
13938 385447
13938 51604
13938 235016
13938 140984
13938 194597
13938 51621
13938 41585
13938 140284
13938 131696
13938 122736
276085 100359
276095 124257
276103 302212
276105 31887
13965 254001
13978 14454
276127 38210
14000 27738
14012 14084
14014 74948
14020 47015
14021 86734
14021 240702
14021 382510
14021 153294
14022 14685
14042 65141
14051 14454
14053 60154
14053 28101
14066 24048
14066 164982
14066 141751
14067 61432
14079 119359
14085 68126
14085 365599
14085 299765
14085 58548
14085 101139
14085 215295
14085 141036
14085 116211
14085 145925
14085 61748
14085 153328
14085 354468
14085 348839
14085 121269
14085 360866
14085 14553
14085 121759
14085 360528
276245 68308
14108 242533
14108 16715
14114 301782
14124 214441
14124 162686
14124 19697
14124 248647
14125 47712
14134 158375
14134 117714
14134 55816
14134 207259
14134 154685
276283 50901
14149 167341
14154 175612
14160 94633
14160 107640
14160 14171
14160 278641
14160 455451
14160 205762
276307 14454
276327 91408
14185 125275
14185 148137
14185 56355
14185 216831
276332 72657
276339 31534
14197 340418
14205 28236
14207 161289
14207 320872
14217 17045
14233 33331
14233 15464
14237 31653
14237 257358
14237 58267
14237 257366
14237 316662
276381 14454
14245 77201
276393 27982
14257 22156
14283 87551
276433 276436
14300 26004
14302 14319
276460 30324
14319 22312
14318 87553
276480 31346
14337 84292
14337 227283
14337 232616
14337 217812
14351 33798
14351 36507
14363 153733
14363 18958
276508 171300
276508 419308
276522 59023
14390 71050
276537 14648
276541 31534
14399 64714
276548 75107
14415 291535
14415 171868
14415 141830
14415 60629
14437 292375
14437 283583
14437 126624
14437 162577
14437 173658
14437 259141
14437 277244
14437 136518
14437 260787
14437 442184
14437 174326
14437 329977
14437 418196
14437 124973
14437 278228
14437 255011
14437 402198
14437 292882
14437 427012
14439 97480
14449 430475
14449 198554
14449 280419
14452 46106
14454 390311
14454 17212
14454 63945
14454 329437
14454 104411
14454 250115
14454 230214
14454 421109
14454 416854
14454 248867
14454 92094
14454 420727
14454 333499
14454 424081
14454 300193
14454 24694
14454 193106
14454 174397
14454 169372
14454 450078
14454 371597
14454 391439
14454 343567
14454 134106
14454 151677
14454 234877
14454 366860
14454 442642
14454 108472
14454 90518
14454 88185
14454 297206
14454 169032
14454 165690
14454 93667
14454 251268
14454 298892
14454 141105
14454 252559
14454 376017
14454 362483
14454 376447
14454 164592
14454 32900
14454 208030
14454 225017
14454 71271
14454 241566
14454 112331
14454 50647
14454 238247
14454 305388
14454 115410
14454 24508
14454 239354
14454 410396
14454 205131
14454 44675
14454 354428
14454 340370
14454 234369
14454 43276
14454 285624
14454 418275
14454 348634
14454 413910
14454 300595
14454 420754
14454 41808
14454 236326
14454 136771
14454 161163
14454 80057
14454 339799
14454 109490
14454 48303
14454 84664
14454 215746
14454 181061
14454 250092
14454 181422
14454 286635
14454 143569
14454 80140
14454 193074
14454 106351
14454 147361
14454 223774
14454 362351
14454 215889
14454 141036
14454 24643
14454 199815
14454 65939
14454 445648
14454 15616
14454 257560
14454 392742
14454 240118
14454 454965
14454 430208
14454 280634
14454 156624
14454 135658
14454 103716
14454 185785
14454 217783
14454 227114
14454 189876
14454 245272
14454 348578
14454 396006
14454 183311
14454 201067
14454 171647
14454 144137
14454 246120
14454 184972
14454 36773
14454 155612
14454 44094
14454 60496
14454 422247
14454 160139
14454 100678
14454 218216
14454 161649
14454 171812
14454 302599
14454 34017
14454 220118
14454 25455
14454 129879
14454 386138
14454 322925
14454 158683
14454 186657
14454 406880
14454 116398
14454 181919
14454 84456
14454 79764
14454 143709
14454 161134
14454 256237
14454 313415
14454 32739
14454 250464
14454 149222
14454 353266
14454 175794
14454 219059
14454 286828
14454 45097
14454 370631
14454 296923
14454 385766
14454 198019
14454 450927
14454 60992
14454 302107
14454 244749
14454 168315
14454 361932
14454 99369
14454 101579
14454 429481
14454 60842
14454 194069
14454 346335
14454 384632
14454 187373
14454 56288
14454 219554
14454 290205
14454 366337
14454 203908
14454 304265
14454 283870
14454 87497
14454 174335
14454 452552
14454 450135
14454 399201
14454 208645
14454 284765
14454 64464
14454 157155
14454 292664
14454 281868
14454 210824
14454 306971
14454 256089
14454 387029
14454 245911
14454 244854
14454 139310
14454 191770
14454 230226
14454 403059
14454 382710
14454 73555
14454 215204
14454 101823
14454 177763
14454 135056
14454 213016
14454 228495
14454 384517
14454 446848
14454 212924
14454 174046
14454 333186
14454 29718
14454 301564
14454 312015
14454 206062
14454 177774
14454 279030
14454 153538
14454 94270
14454 402232
14454 435622
14454 59993
14454 64821
14454 205467
14454 278286
14454 185628
14454 215816
14454 349368
14454 167009
14454 198445
14454 295407
14454 39784
14454 323227
14454 99198
14454 253065
14454 95285
14454 370897
14454 338214
14454 235268
14454 281509
14454 408635
14454 188771
14454 191545
14454 191115
14454 303498
14454 166394
14454 450543
14454 194361
14454 153117
14454 190393
14454 422280
14454 420827
14454 226474
14454 141055
14454 127603
14454 82874
14454 23965
14454 181010
14454 375242
14454 213022
14454 386459
14454 154871
14454 48612
14454 413930
14454 29457
14454 288609
14454 80729
14454 110046
14454 223278
14454 156885
14454 254124
14454 250162
14454 38191
14454 33882
14454 207143
14454 175926
14454 158696
14454 57714
14454 141864
14454 136948
14454 241246
14454 451777
14454 87034
14454 59347
14454 80581
14454 406728
14454 406516
14454 343923
14454 396781
14454 290119
14454 303618
14454 304454
14454 433372
14454 304000
14454 21384
14454 101981
14454 365864
14454 212693
14454 205571
14454 248029
14454 96979
14454 66003
14454 450291
14454 182663
14454 289901
14454 238986
14454 403988
14454 194643
14454 279035
14454 91425
14454 221978
14454 359251
14454 17427
14454 346539
14454 366767
14454 224510
14454 113390
14454 139851
14454 36037
14454 37399
14454 170481
14454 211921
14454 182154
14454 215438
14454 215493
14454 389883
14454 232732
14454 212998
14454 202982
14454 160987
14454 184368
14454 166444
14454 444871
14454 37005
14454 418003
14454 434550
14454 334769
14454 380735
14454 230848
14454 233612
14454 397801
14454 191924
14454 398864
14454 407957
14454 91498
14454 48641
14454 423261
14454 450919
14454 65017
14454 440875
14454 25795
14454 209416
14454 455188
14454 297904
14454 235733
14454 372132
14454 62680
14454 434494
14454 255733
14454 332855
14454 59156
14454 22664
14454 246673
14454 29820
14454 424974
14454 226132
14454 308496
14454 228103
14454 390862
14454 39782
14454 291147
14454 79619
14454 236121
14454 126902
14454 67955
14454 121324
14454 203322
14454 86020
14454 333680
14454 371553
14454 316673
14454 124520
14454 108079
14454 206155
14454 225374
14454 417364
14454 389306
14454 229024
14454 292666
14454 295026
14454 155964
14454 420110
14454 65574
14454 38915
14454 171129
14454 291707
14454 152709
14454 324675
14454 318237
14454 227059
14454 432073
14454 259997
14454 142283
14454 327301
14454 44780
14454 141126
14454 52378
14454 71974
14454 77144
14454 243764
14454 415122
14454 220612
14454 327674
14454 177930
14454 287070
14454 158686
14454 127060
14454 315076
14454 254326
14454 252132
14454 132044
14454 402925
14454 208701
14454 349528
14454 120538
14454 67660
14454 247654
14454 255849
14454 334297
14454 450427
14454 31136
14454 390294
14454 391415
14454 132625
14454 450676
14454 80314
14454 110287
14454 450631
14454 197289
14454 391844
14454 152629
14454 221052
14454 108962
14454 335843
14454 415850
14454 78249
14454 131792
14454 52668
14454 245343
14454 288406
14454 340455
14454 86053
14454 128037
14454 346829
14454 420989
14454 426195
14454 252338
14454 300649
14454 354255
14454 358362
14454 257094
14454 369528
14454 311944
14454 296008
14454 230901
14454 113242
14454 90763
14454 295343
14454 55685
14454 138228
14454 390483
14454 230776
14454 211669
14454 282085
14454 230072
14454 118414
14454 19458
14454 360800
14454 439836
14454 123746
14454 231960
14454 240331
14454 382363
14454 58961
14454 162373
14454 228096
14454 76053
14454 325048
14454 183211
14454 149568
14454 168511
14454 85225
14454 227484
14454 16726
14454 319630
14454 319193
14454 280272
14454 126785
14454 223623
14454 153268
14454 224568
14454 16836
14454 379014
14454 28029
14454 412997
14454 237022
14454 89228
14454 238555
14454 306422
14454 198228
14454 51319
14454 154611
14454 91179
14454 97478
14454 192374
14454 422383
14454 60921
14454 183849
14454 36527
14454 135021
14454 293147
14454 140004
14454 349314
14454 315049
14454 329866
14454 334383
14454 212280
14454 421220
14454 246466
14454 321194
14454 183872
14454 68264
14454 285561
14454 204194
14454 403760
14454 27161
14454 216826
14454 386583
14454 44716
14454 219793
14454 224505
14454 94138
14454 314339
14454 51419
14454 279862
14454 382092
14454 26485
14454 398950
14454 450426
14454 201355
14454 235262
14454 344578
14454 405036
14454 139266
14454 65580
14454 354009
14454 215449
14454 235447
14454 330681
14454 77080
14454 132007
14454 18533
14454 147981
14454 71517
14454 341148
14454 452077
14454 388173
14454 70763
14454 49950
14454 141419
14454 29189
14454 220716
14454 78926
14454 386429
14454 54052
14454 258028
14454 31022
14454 355743
14454 196789
14454 303212
14454 240278
14454 109492
14454 47977
14454 174675
14454 53882
14454 434240
14454 321357
14454 347129
14454 237715
14454 36634
14454 110821
14454 251485
14454 207374
14454 133047
14454 135659
14454 344142
14454 310554
14454 413199
14454 24460
14454 231395
14454 29906
14454 424692
14454 331644
14454 208981
14454 381378
14454 209121
14454 98900
14454 298914
14454 392074
14454 30239
14454 16355
14454 175929
14454 190120
14454 188567
14454 226131
14454 109023
14454 234017
14454 374071
14454 322973
14454 124261
14454 420599
14454 221474
14454 343029
14454 191989
14454 370481
14454 333552
14454 60132
14454 44273
14454 241014
14454 117835
14454 328508
14454 416061
14454 221345
14454 200837
14454 27827
14454 220619
14454 297468
14454 121958
14454 372555
14454 162628
14454 371997
14454 46112
14454 302960
14454 104169
14454 393292
14454 289098
14454 437559
14454 451743
14454 25508
14454 173932
14454 223752
14454 257496
14454 395020
14454 244311
14454 376305
14454 421708
14454 375674
14454 340649
14454 192513
14454 94473
14454 410069
14454 306289
14454 367879
14454 376773
14454 414101
14454 52327
14454 324160
14454 108206
14454 26987
14454 88812
14454 450609
14454 203388
14454 97741
14454 236158
14454 350507
14454 223570
14454 356824
14454 300522
14454 177490
14454 191433
14454 424913
14454 436499
14454 288212
14454 338431
14454 29365
14454 452117
14454 330424
14454 419429
14454 109597
14454 32417
14454 261742
14454 229348
14454 49828
14454 166771
14454 401439
14454 347810
14454 436787
14454 43417
14454 144813
14454 94337
14454 153107
14454 167467
14454 309075
14454 436632
14454 326127
14454 331864
14454 149285
14454 197715
14454 403990
14454 226886
14454 98636
14454 148422
14454 399523
14454 107161
14454 455776
14454 56985
14454 331607
14454 243467
14454 212667
14454 178230
14454 368444
14454 180065
14454 83549
14454 184399
14454 393032
14454 62015
14454 388127
14454 355625
14454 418281
14454 184578
14454 66539
14454 408985
14454 215463
14454 220200
14454 455962
14454 17302
14454 278210
14454 388027
14454 81284
14454 366896
14454 207052
14454 243308
14454 35685
14454 285238
14454 152521
14454 370972
14454 354111
14454 451376
14454 188669
14454 74259
14454 431849
14454 295418
14454 277682
14454 256652
14454 244730
14454 107760
14454 182865
14454 223045
14454 436472
14454 321960
14454 41705
14454 257548
14454 56664
14454 321414
14454 404189
14454 426017
14454 415768
14454 290452
14454 51851
14454 435405
14454 218695
14454 56795
14454 231676
14454 376486
14454 211363
14454 227139
14454 419891
14454 327075
14454 285458
14454 70069
14454 28177
14454 229647
14454 412647
14454 426094
14454 43571
14454 189369
14454 115844
14454 298210
14454 161230
14454 252142
14454 290184
14454 349315
14454 55019
14454 104993
14454 111755
14454 143239
14454 364746
14454 388729
14454 107706
14454 297758
14454 131936
14454 105593
14454 201259
14454 143981
14454 198557
14454 176670
14454 333301
14454 353214
14454 96890
14454 195125
14454 112578
14454 226050
14454 380784
14454 200542
14454 89267
14454 413067
14454 446958
14454 204752
14454 282397
14454 249049
14454 139817
14454 22061
14454 349179
14454 223513
14454 387813
14454 61005
14454 161694
14454 58849
14454 352256
14454 133612
14454 182103
14454 394420
14454 71815
14454 381677
14454 235194
14454 367458
14454 169773
14454 420731
14454 228438
14454 177045
14454 126395
14454 197324
14454 259573
14454 80518
14454 129576
14454 28371
14454 251526
14454 409148
14454 292676
14454 315657
14454 243789
14454 248170
14454 307131
14454 372785
14454 26414
14454 373076
14454 174207
14454 156847
14454 188392
14454 390256
14454 309171
14454 376651
14454 403782
14454 238347
14454 451760
14454 225388
14454 369539
14454 315094
14454 239559
14454 221324
14454 199259
14454 219597
14454 179902
14454 177543
14454 368855
14454 60808
14454 167450
14454 282412
14454 41720
14454 243411
14454 81583
14454 208325
14454 149752
14454 432128
14454 101780
14454 222882
14454 412943
14454 356069
14454 418200
14454 224969
14454 63551
14454 30275
14454 242972
14454 139972
14454 112560
14454 257969
14454 294518
14454 282382
14454 145973
14454 215143
14454 291167
14454 147250
14454 188134
14454 378810
14454 310804
14454 145855
14454 69721
14454 30889
14454 353396
14454 450746
14454 140843
14454 335765
14454 61588
14454 45298
14454 449207
14454 224080
14454 251785
14454 417406
14454 83016
14454 95564
14454 201531
14454 17921
14454 200313
14454 277564
14454 83385
14454 286587
14454 355148
14454 242936
14454 253311
14454 317239
14454 399600
14454 448259
14454 418986
14454 330624
14454 231316
14454 338100
14454 400119
14454 79843
14454 339534
14454 294853
14454 49910
14454 209913
14454 45654
14454 310486
14454 333236
14454 95702
14454 93672
14454 161417
14454 210035
14454 332029
14454 237751
14454 37210
14454 449166
14454 86096
14454 369756
14454 232803
14454 201777
14454 234186
14454 222487
14454 252447
14454 450758
14454 171997
14454 280056
14454 128091
14454 442173
14454 382501
14454 386279
14454 221926
14454 195803
14454 136038
14454 403006
14454 403145
14454 40568
14454 175076
14454 149859
14454 362790
14454 19833
14454 145781
14454 361646
14454 176536
14454 326336
14454 150553
14454 112575
14454 216388
14454 126102
14454 247244
14454 451244
14454 136772
14454 451177
14454 450134
14454 39779
14454 68129
14454 333110
14454 70838
14454 392914
14454 260833
14454 237107
14454 91055
14454 433799
14454 111170
14454 196987
14454 74580
14454 183082
14454 383094
14454 65458
14454 408885
14454 18468
14454 365174
14454 422419
14454 277929
14454 38533
14454 219404
14454 77201
14454 112530
14454 251452
14454 101952
14454 88723
14454 170397
14454 401260
14454 206785
14454 436090
14454 114416
14454 91712
14454 115477
14454 83879
14454 92640
14454 410268
14454 361547
14454 368454
14454 119578
14454 46734
14454 346038
14454 21247
14454 223303
14454 298595
14454 285470
14454 148270
14454 449145
14454 297901
14454 218086
14454 398434
14454 96306
14454 40786
14454 38026
14454 16679
14454 84843
14454 388617
14454 203935
14454 116867
14454 358843
14454 43397
14454 261509
14454 48267
14454 284959
14454 152923
14454 125069
14454 323369
14454 85424
14454 259986
14454 143133
14454 373212
14454 353245
14454 430506
14454 231726
14454 429773
14454 236907
14454 296373
14454 112645
14454 51844
14454 377945
14454 145121
14454 290718
14454 63432
14454 311436
14454 162607
14454 103415
14454 281684
14454 88679
14454 284368
14454 453582
14454 45980
14454 70138
14454 315654
14454 153900
14454 113608
14454 169785
14454 342447
14454 102036
14454 452812
14454 206328
14454 119185
14454 291570
14454 127983
14454 86495
14454 170784
14454 284195
14454 208078
14454 412678
14454 233182
14454 325260
14454 402671
14454 22072
14454 105059
14454 230135
14454 192564
14454 224181
14454 97780
14454 217151
14454 215714
14454 171723
14454 145938
14454 96758
14454 237701
14454 94022
14454 453431
14454 137500
14454 181011
14454 173750
14454 277885
14454 123785
14454 436664
14454 24971
14454 198143
14454 323792
14454 167606
14454 91708
14454 140728
14454 278639
14454 116126
14454 66961
14454 369651
14454 238302
14454 103696
14454 161445
14454 143612
14454 250746
14454 413310
14454 340868
14454 137339
14454 287530
14454 312039
14454 417702
14454 298653
14454 348163
14454 39497
14454 33954
14454 228237
14454 388823
14454 240663
14454 303317
14454 298438
14454 83863
14454 154244
14454 427179
14454 42240
14454 196468
14454 31163
14454 121729
14454 222173
14454 450642
14454 441710
14454 243808
14454 196192
14454 107233
14454 293010
14454 98626
14454 181881
14454 306244
14454 113774
14454 209417
14454 247601
14454 414361
14454 33789
14454 400721
14454 157440
14454 248907
14454 154336
14454 80803
14454 300289
14454 334374
14454 56552
14454 401386
14454 52581
14454 241666
14454 194669
14454 428869
14454 282428
14454 149621
14454 212940
14454 134406
14454 209261
14454 148870
14454 451025
14454 280746
14454 379825
14454 286628
14454 21860
14454 136510
14454 149256
14454 298793
14454 240988
14454 220401
14454 168256
14454 214145
14454 336062
14454 256082
14454 314336
14454 282455
14454 233113
14454 56450
14454 224206
14454 121058
14454 391569
14454 346168
14454 87579
14454 346289
14454 211296
14454 16630
14454 105526
14454 305985
14454 302837
14454 157950
14454 326106
14454 48538
14454 164468
14454 237139
14454 101336
14454 33543
14454 211405
14454 285350
14454 403116
14454 367868
14454 37598
14454 296913
14454 283059
14454 198571
14454 127970
14454 299866
14454 300127
14454 321909
14454 298936
14454 367473
14454 333614
14454 376869
14454 321401
14454 158579
14454 426745
14454 439400
14454 28392
14454 400114
14454 139516
14454 133070
14454 163964
14454 202545
14454 184508
14454 290346
14454 234556
14454 77447
14454 125786
14454 342850
14454 291677
14454 352041
14454 150734
14454 387121
14454 125428
14454 290434
14454 411949
14454 175476
14454 14838
14454 91707
14454 45028
14454 29584
14454 142785
14454 295369
14454 214501
14454 230534
14454 140662
14454 297474
14454 300228
14454 227950
14454 424395
14454 247997
14454 422778
14454 71649
14454 409458
14454 181280
14454 243436
14454 236232
14454 63327
14454 67544
14454 340395
14454 76365
14454 66947
14454 99463
14454 244209
14454 415859
14454 338540
14454 317991
14454 218415
14454 190216
14454 217966
14454 239214
14454 169264
14454 421815
14454 449007
14454 104219
14454 169413
14454 213746
14454 121262
14454 431715
14454 165212
14454 199102
14454 81176
14454 361105
14454 154384
14454 335524
14454 233062
14454 166373
14454 227395
14454 245832
14454 244212
14454 147348
14454 315414
14454 17830
14454 221833
14454 171081
14454 334428
14454 441602
14454 392750
14454 69282
14454 450075
14454 245132
14454 240666
14454 80162
14454 303617
14454 240113
14454 188048
14454 54089
14454 398240
14454 55606
14454 105449
14454 331156
14454 62063
14454 316745
14454 140707
14454 113087
14454 168666
14454 47326
14454 278990
14454 238046
14454 406736
14454 449549
14454 132696
14454 53646
14454 133684
14454 240794
14454 447339
14454 126311
14454 187656
14454 82853
14454 448917
14454 278521
14454 72493
14454 238527
14454 71915
14454 58313
14454 44700
14454 66577
14454 367170
14454 211204
14454 151891
14454 121809
14454 342410
14454 425247
14454 249539
14454 150328
14454 256644
14454 22725
14454 43830
14454 383917
14454 307200
14454 221740
14454 60195
14454 39074
14454 117262
14454 424836
14454 133493
14454 286211
14454 42311
14454 304814
14454 419960
14454 260292
14454 100483
14454 398382
14454 242968
14454 137423
14454 94744
14454 136002
14454 245991
14454 234229
14454 97687
14454 286657
14454 165867
14454 304906
14454 297832
14454 445687
14454 247989
14454 93126
14454 290229
14454 115391
14454 372911
14454 235416
14454 372913
14454 18949
14454 165335
14454 197067
14454 92251
14454 56218
14454 246641
14454 47628
14454 386112
14454 295939
14454 145444
14454 135583
14454 238311
14454 285169
14454 179066
14454 57712
14454 419864
14454 96271
14454 325158
14454 184898
14454 83928
14454 440180
14454 45188
14454 387422
14454 131697
14454 88091
14454 409582
14454 137954
14454 435691
14454 301114
14454 249771
14454 86678
14454 308798
14454 399640
14454 154978
14454 62198
14454 169090
14454 185830
14454 225454
14454 186101
14454 288193
14454 52644
14454 240566
14454 132505
14454 91384
14454 139946
14454 101133
14454 304760
14454 285604
14454 341585
14454 89954
14454 220203
14454 115478
14454 280455
14454 309730
14454 173326
14454 123277
14454 100361
14454 206829
14454 295321
14454 62443
14454 239305
14454 394770
14454 379098
14454 300014
14454 176109
14454 31043
14454 152681
14454 186674
14454 114129
14454 178803
14454 145961
14454 34294
14454 223607
14454 221633
14454 195375
14454 189649
14454 17579
14454 102938
14454 139165
14454 451948
14454 362577
14454 213884
14454 128004
14454 215009
14454 188485
14454 433094
14454 250685
14454 36911
14454 235749
14454 314864
14454 143186
14454 336354
14454 338501
14454 234486
14454 109186
14454 251922
14454 51638
14454 132819
14454 185124
14454 21878
14454 135227
14454 313118
14454 237124
14454 453501
14454 140692
14454 134785
14454 353271
14454 314337
14454 30777
14454 404168
14454 404556
14454 452096
14454 450756
14454 122768
14454 370727
14454 229719
14454 312023
14454 416450
14454 81619
14454 451466
14454 413601
14454 358075
14454 259385
14454 284364
14454 25484
14454 131523
14454 75222
14454 156231
14454 432478
14454 66809
14454 31171
14454 315570
14454 95819
14454 363392
14454 374297
14454 400970
14454 378480
14454 455536
14454 96307
14454 181214
14454 220323
14454 161690
14454 145836
14454 307051
14454 149236
14454 131184
14454 240162
14454 27959
14454 391467
14454 261866
14454 407618
14454 304379
14454 56463
14454 394571
14454 34204
14454 388822
14454 169304
14454 313060
14454 144877
14454 280955
14454 48251
14454 71623
14454 277374
14454 120022
14454 241947
14454 253013
14454 173349
14454 18119
14454 139264
14454 371861
14454 328783
14454 121575
14454 426242
14454 352575
14454 152463
14454 55922
14454 256079
14454 380206
14454 220954
14454 105350
14454 405399
14454 228717
14454 295533
14454 188138
14454 349820
14454 312185
14454 177972
14454 163403
14454 225991
14454 34471
14454 439829
14454 91243
14454 205272
14454 88508
14454 310344
14454 318425
14454 216682
14454 87285
14454 160370
14454 23220
14454 450509
14454 125780
14454 441756
14454 361319
14454 439415
14454 28417
14454 354549
14454 372458
14454 196161
14454 72697
14454 144146
14454 151753
14454 289355
14454 244948
14454 352139
14454 191156
14454 241371
14454 123265
14454 113333
14454 44918
14454 17097
14454 164244
14454 415157
14454 296173
14454 322223
14454 442957
14454 75573
14454 325134
14454 415478
14454 47370
14454 15644
14454 109087
14454 76938
14454 310956
14454 155889
14454 451679
14454 401925
14454 260252
14454 172338
14454 169588
14454 184755
14454 36439
14454 75351
14454 70145
14454 237930
14454 280057
14454 259286
14454 177033
14454 67794
14454 387564
14454 209670
14454 229874
14454 229931
14454 339292
14454 212587
14454 279472
14454 67295
14454 127645
14454 206941
14454 87540
14454 393370
14454 339198
14454 451773
14454 279137
14454 72113
14454 178364
14454 24517
14454 189722
14454 213137
14454 166719
14454 404057
14454 236730
14454 144752
14454 165225
14454 358373
14454 306245
14454 100360
14454 452197
14454 446537
14454 131002
14454 64245
14454 438575
14454 89804
14454 155479
14454 234012
14454 401093
14454 125932
14454 346920
14454 177731
14454 324447
14454 342756
14454 234524
14454 41159
14454 153979
14454 445710
14454 348664
14454 190281
14454 159671
14454 235001
14454 49850
14454 212015
14454 364895
14454 432750
14454 62684
14454 225053
14454 175743
14454 251084
14454 88683
14454 154471
14454 245602
14454 41321
14454 174768
14454 306285
14454 242508
14454 367398
14454 393267
14454 391306
14454 391170
14454 311224
14454 200858
14454 371672
14454 21905
14454 208527
14454 317612
14454 172137
14454 453651
14454 79847
14454 285820
14454 90239
14454 105390
14454 377556
14454 418175
14454 111976
14454 40502
14454 215435
14454 196184
14454 403621
14454 378496
14454 451496
14454 229833
14454 392183
14454 311095
14454 228088
14454 212959
14454 438340
14454 395096
14454 320861
14454 334573
14454 133830
14454 46102
14454 81150
14454 363996
14454 154108
14454 199978
14454 52382
14454 47243
14454 299590
14454 412608
14454 349215
14454 280619
14454 430983
14454 19261
14454 187625
14454 146603
14454 359171
14454 328240
14454 400112
14454 451323
14454 377155
14454 417461
14454 175851
14454 121003
14454 346580
14454 341651
14454 155132
14454 214131
14454 435649
14454 135306
14454 92290
14454 143149
14454 144648
14454 68034
14454 231263
14454 115308
14454 389289
14454 395970
14454 187234
14454 70058
14454 224609
14454 311495
14454 293377
14454 242514
14454 50349
14454 193426
14454 39513
14454 120738
14454 330873
14454 145750
14454 434756
14454 51428
14454 407851
14454 233528
14454 322870
14454 217941
14454 259960
14454 192676
14454 204822
14454 329885
14454 156450
14454 22701
14454 248877
14454 308140
14454 226268
14454 312892
14454 251220
14454 206171
14454 30753
14454 52493
14454 31792
14454 407289
14454 441114
14454 438884
14454 42492
14454 205893
14454 450891
14454 125775
14454 163170
14454 40901
14454 370404
14454 407805
14454 209675
14454 338091
14454 393288
14454 426036
14454 259952
14454 54400
14454 112110
14454 330052
14454 354546
14454 177773
14454 451406
14454 373463
14454 95672
14454 183369
14454 402668
14454 30285
14454 295437
14454 18459
14454 441852
14454 173665
14454 83815
14454 439357
14454 200285
14454 407349
14454 132002
14454 72106
14454 63980
14454 450787
14454 455235
14454 378702
14454 138396
14454 224231
14454 23904
14454 372107
14454 26052
14454 297210
14454 31660
14454 136470
14454 88391
14454 277573
14454 167222
14454 105094
14454 452187
14454 410029
14454 441907
14454 284294
14454 33970
14454 205390
14454 112431
14454 365140
14454 368588
14454 91107
14454 201597
14454 33303
14454 380150
14454 25900
14454 127958
14454 129991
14454 310502
14454 40024
14454 408030
14454 50844
14454 223580
14454 77827
14454 236029
14454 100177
14454 65138
14454 434146
14454 435301
14454 218815
14454 135609
14454 231278
14454 121572
14454 372435
14454 158785
14454 315783
14454 359392
14454 225360
14454 428502
14454 159376
14454 294898
14454 429890
14454 21714
14454 163569
14454 103362
14454 149218
14454 221743
14454 336084
14454 80955
14454 290345
14454 311058
14454 398477
14454 236394
14454 245517
14454 432874
14454 140105
14454 259421
14454 57618
14454 282175
14454 132585
14454 388098
14454 171090
14454 169744
14454 174992
14454 155354
14454 148592
14454 30351
14454 204500
14454 182597
14454 157866
14454 372201
14454 21725
14454 141808
14454 82837
14454 112638
14454 346540
14454 370161
14454 42335
14454 386323
14454 316940
14454 426541
14454 317138
14454 451741
14454 156922
14454 436403
14454 16254
14454 292748
14454 50813
14454 42416
14454 226565
14454 216637
14454 343999
14454 123859
14454 48827
14454 419974
14454 141592
14454 391414
14454 133285
14454 151647
14454 194501
14454 169771
14454 282506
14454 184432
14454 280759
14454 241086
14454 198326
14454 320209
14454 279575
14454 435826
14454 440088
14454 81846
14454 118599
14454 155833
14454 336860
14454 235104
14454 296393
14454 333433
14454 110783
14454 453897
14454 39210
14454 145333
14454 243032
14454 26062
14454 259849
14454 28574
14454 456544
14454 293779
14454 146467
14454 347527
14454 340566
14454 63651
14454 310238
14454 360361
14454 179788
14454 48588
14454 307511
14454 214390
14454 50945
14454 450324
14454 100485
14454 39338
14454 379753
14454 83693
14454 433265
14454 67791
14454 170112
14454 261734
14454 143692
14454 314667
14454 222150
14454 108471
14454 322929
14454 382246
14454 180093
14454 261024
14454 23994
14454 218249
14454 84236
14454 218526
14454 324258
14454 167630
14454 198639
14454 334047
14454 414086
14454 119646
14454 101887
14454 428088
14454 397122
14454 321322
14454 79621
14454 131509
14454 249865
14454 218680
14454 216984
14454 280268
14454 360269
14454 407951
14454 177547
14454 50489
14454 241815
14454 388129
14454 64220
14454 218387
14454 137041
14454 242235
14454 198321
14454 91770
14454 286565
14454 334478
14454 43340
14454 152014
14454 282256
14454 74555
14454 435564
14454 133887
14454 385103
14454 302765
14454 244906
14454 62862
14454 78361
14454 283982
14454 199773
14454 196874
14454 73275
14454 206669
14454 182799
14454 294172
14454 225357
14454 29102
14454 52081
14454 451359
14454 33403
14454 52483
14454 356426
14454 215563
14454 217974
14454 368146
14454 305690
14454 186840
14454 19691
14454 208294
14454 112141
14454 284304
14454 360095
14454 209855
14454 107846
14454 303529
14454 345377
14454 137119
14454 82185
14454 180366
14454 209134
14454 193174
14454 367578
14454 120526
14454 419103
14454 433725
14454 362889
14454 223352
14454 339526
14454 91635
14454 299791
14454 228929
14454 20547
14454 235684
14454 57634
14454 85046
14454 323138
14454 120998
14454 450047
14454 208639
14454 66195
14454 203869
14454 216118
14454 49120
14454 423565
14454 195826
14454 257088
14454 113716
14454 80101
14454 427865
14454 97296
14454 294467
14454 63322
14454 257039
14454 92481
14454 450290
14454 300167
14454 114455
14454 348061
14454 395812
14454 281091
14454 61853
14454 334913
14454 85814
14454 121289
14454 299691
14454 14883
14454 439922
14454 385045
14454 258158
14454 364737
14454 450655
14454 287472
14454 336290
14454 21510
14454 288874
14454 352561
14454 53196
14454 218432
14454 220596
14454 100595
14454 362010
14454 147707
14454 339005
14454 180255
14454 387315
14454 355670
14454 261501
14454 74947
14454 382502
14454 341876
14454 54852
14454 191261
14454 450906
14454 158512
14454 450753
14454 308059
14454 394453
14454 163851
14454 60559
14454 85668
14454 157722
14454 412556
14454 356739
14454 118765
14454 397060
14454 240670
14454 150966
14454 288973
14454 129041
14454 431856
14454 450630
14454 355053
14454 439854
14454 230921
14454 328715
14454 133142
14454 33482
14454 277518
14454 236524
14454 199961
14454 15730
14454 150525
14454 168653
14454 241245
14454 258865
14454 176220
14454 247116
14454 117773
14454 375085
14454 395439
14454 32786
14454 406235
14454 91962
14454 230543
14454 395794
14454 29415
14454 252255
14454 206288
14454 431354
14454 353812
14454 81181
14454 450928
14454 56007
14454 407168
14454 450931
14454 212816
14454 415488
14454 182595
14454 171999
14454 37266
14454 175396
14454 208840
14454 87557
14454 42958
14454 256118
14454 196170
14454 428217
14454 147835
14454 55434
14454 124554
14454 313259
14454 355401
14454 31739
14454 371651
14454 207981
14454 302633
14454 27009
276604 97963
14461 193534
14474 14813
14476 120707
14476 227558
14476 282208
276628 35772
14485 62477
14485 19066
14485 100915
14485 174986
14485 288505
14484 45641
14484 228294
14484 14487
14484 46255
14484 56702
14484 369222
276634 255249
14492 24326
14492 79253
14508 94267
276654 40303
14526 221303
14526 18147
14526 451527
14526 134844
14533 30179
276682 14549
14541 55145
14549 40316
14549 138619
14549 136072
14549 244988
14549 366244
14549 393753
14549 391214
14549 352316
14549 172776
14549 380351
14549 201267
14549 238590
14549 395681
14549 122432
14549 215939
14549 37096
14549 126408
14549 375109
14549 237077
14549 28156
14549 302084
14549 35042
14549 393970
14549 93444
14549 279747
14549 342686
14549 306852
14549 312804
14549 72854
14549 371012
14549 153315
14549 131111
14549 69873
14549 387767
14549 442439
14549 126258
14549 348173
14549 365594
14549 56865
14549 125989
14549 415666
14549 58150
14549 180938
14549 282990
14549 364364
14549 186570
14549 357496
14549 65303
14549 14565
14549 446146
14549 111286
14549 314774
14549 396811
14549 146640
14549 162130
14549 377073
14549 319842
14549 339507
14549 307561
14549 118527
14549 92823
14549 188683
14549 99043
14549 58144
14549 243345
14549 65581
14549 102300
14549 428104
14549 146641
14549 283457
14549 305733
14549 388697
14549 130847
14549 419472
14549 285262
14549 91024
14549 311263
14549 395485
14549 369843
14549 402200
14549 184738
14549 395705
14549 311183
14549 77750
14549 382470
14549 418514
14549 307882
14549 341668
14549 40266
14549 405788
14549 143472
14549 444930
14549 328631
14549 336040
14549 225172
14549 390764
14549 440814
14549 310444
14549 342542
14549 144200
14549 145447
14549 401138
14549 190426
14549 322304
14549 296061
14549 409687
14549 326630
14549 396239
14549 314738
14549 423237
14549 129575
14549 114311
14549 350278
14549 332183
14549 31087
14549 176097
14549 390388
14549 245174
14549 389964
14549 245032
14549 102978
14549 141979
14549 378810
14549 61229
14549 128394
14549 436579
14549 332119
14549 383896
14549 380629
14549 347099
14549 404656
14549 184278
14549 342940
14549 307873
14549 134812
14549 422410
14549 338432
14549 67540
14549 205037
14549 78416
14549 326962
14549 375930
14549 119091
14549 194544
14549 49722
14549 28127
14549 112072
14549 347332
14549 369088
14549 401990
14549 229362
14549 108034
14549 182158
14549 372911
14549 446583
14549 403559
14549 302685
14549 294066
14549 411967
14549 115111
14549 20970
14549 261427
14549 394389
14549 353908
14549 282019
14549 381276
14549 90354
14549 345193
14549 401704
14549 116538
14549 59395
14549 393578
14549 327373
14549 174954
14549 390679
14549 359760
14549 445482
14549 360487
14549 327160
14549 401073
14549 71236
14549 406379
14549 441006
14549 428697
14549 37128
14549 138057
14549 136306
14549 281675
14549 113832
14549 390110
14549 28160
14549 101790
14549 57517
14549 415482
14549 102496
14549 395186
14549 182578
14549 427220
14549 394390
14549 134626
14549 345583
14549 369465
14549 335988
14549 290271
14549 376698
14549 439527
14549 357657
14549 410688
14549 313769
14549 43965
14549 409947
14549 371268
14549 290538
14549 102484
14549 358759
14549 377332
14549 116511
14549 403888
14549 406339
14549 342037
14549 102401
14549 247255
14549 256485
14549 372559
14549 382162
14549 319454
14549 326873
14549 141168
14549 340374
14549 283841
14549 127759
14549 394110
14549 214977
14549 376485
14549 132118
14549 355237
14549 341170
14549 402882
14549 206503
14549 294722
14549 145702
14549 99145
14549 391306
14549 166375
14549 399643
14549 131538
14549 376636
14549 394997
14549 356285
14549 178059
14549 316831
14549 393487
14549 80247
14549 308321
14549 384721
14549 370353
14549 162171
14549 439431
14549 406304
14549 337976
14549 412553
14549 134262
14549 357029
14549 87321
14549 39209
14549 91240
14549 379869
14549 252836
14549 122606
14549 69132
14549 190998
14549 171541
14549 68758
14549 112013
14549 330548
14549 116657
14549 389742
14549 227142
14549 375637
14549 358629
14549 363013
14549 56803
14549 205658
14549 350998
14549 366916
14549 411462
14549 378257
14549 441206
14549 322971
14549 113027
14549 380628
14549 56423
14549 381634
14549 130243
14549 369829
14549 288132
14551 35366
14551 248859
14551 64552
14551 167926
14551 394501
14551 125963
14551 61432
14551 290627
14554 328882
14554 166092
14554 342941
14557 238715
14557 224006
14557 83785
14557 323772
14557 31859
14557 402153
14557 92823
14557 343266
14557 384987
14557 455907
14557 289905
14557 135803
14557 349425
14557 309277
14557 95334
14557 90979
14557 329822
14557 28115
14557 84172
14557 377936
14557 341170
14557 314001
14557 384955
14557 335291
14557 201452
14557 402151
14557 52492
14557 345902
14557 378737
14557 152521
14557 404706
14557 95429
14557 347714
14557 78141
14557 171691
14557 174112
14557 309276
14557 133978
14557 380179
14557 281449
14557 368866
14557 141785
14557 61733
14557 352858
14557 360246
14557 53504
14557 195805
14557 364316
14557 391863
14557 392136
14557 190497
14557 29906
14557 400910
14557 365346
14557 260431
14557 408586
14557 396606
14557 349950
14557 304771
14557 379869
14557 326472
14557 57181
14557 350830
14557 164423
14557 283641
14557 35785
14557 400278
14557 313964
14557 310048
14557 68758
14557 296605
14557 104995
14557 56272
14557 73927
14557 192458
14557 343007
14557 75166
14557 301706
14557 105983
14562 22629
14563 14615
14565 77555
14565 122619
14565 327166
14565 119547
14565 117661
14565 444546
14565 21009
14565 20949
14565 343525
14565 193627
14565 19159
14565 56449
14565 170799
14565 102497
14565 95231
14565 57494
14565 45410
14565 144551
14565 58070
14565 105587
14565 35113
14565 54367
14565 37536
14565 39130
14565 102336
14565 34236
14565 16547
14565 31088
14565 100066
14565 402462
14565 78416
14565 55965
14565 362531
14565 141868
14565 379866
14565 99021
14565 359016
14565 100351
14565 61094
14565 413497
14565 57429
14565 423256
14565 56433
14565 19913
14565 202540
14565 101039
14565 37540
14565 16523
14568 181008
14570 323806
14570 95063
14570 99649
14570 174957
14570 364013
14570 31727
14570 47821
14570 16514
14570 53361
14570 222736
14571 102503
14571 428141
14571 288708
14571 123769
14571 58185
14571 193630
14571 72854
14571 50769
14571 65879
14571 73332
14571 125663
14571 386696
14571 261200
14571 112996
14571 446918
14571 192282
14571 74957
14571 361192
14571 288084
14571 116872
14571 39449
14571 440579
14571 131273
14571 453939
14571 328331
14571 92369
14577 37495
14577 235473
14577 130319
14577 292342
14577 256769
14577 380809
14577 42251
14577 354280
14577 32972
14577 161432
14577 69127
14577 391832
14577 128665
14577 34708
14577 393476
14577 44988
14577 58126
14577 377940
14577 381787
14577 192302
14577 105989
14577 225708
14577 309630
14577 57181
14577 186758
14577 179276
14577 328165
14577 116535
14577 138676
14577 432990
14577 259573
14577 71533
14577 334452
14577 338597
14577 360432
14577 134538
14577 139316
14577 331327
14577 438755
14577 284625
14577 286739
14577 375467
14577 148258
14577 21038
14577 71487
14577 124213
14577 386339
14577 362646
14577 232501
14577 357859
14577 449962
14577 73857
14577 451468
14577 317506
14577 254393
14577 78505
14577 64994
14577 373619
14577 179388
14577 118356
14577 369818
14577 156057
14577 324063
14577 101071
14577 99038
14577 230370
14577 91342
14577 296409
14577 314805
14577 53485
14577 322217
14577 393904
14577 90976
14577 307071
14577 379125
14577 107894
14577 83181
14577 349027
14577 378652
14577 117661
14577 438963
14578 99055
14578 392591
14578 16546
14578 390381
14578 116737
14578 450839
14578 367887
14578 230370
14584 211580
14584 454937
14584 119358
14584 122608
14584 189661
14584 279538
14584 175560
14584 60403
14584 238590
14584 329810
14584 302800
14584 375129
14584 402882
14584 243366
14584 395983
14584 310041
14584 88515
14584 413804
14584 119996
14584 421962
14584 384842
14584 189900
14584 182023
14584 347630
14584 343316
14584 402342
14584 123312
14584 310080
14584 53246
14584 64442
14584 333518
14584 199495
14584 83948
14584 99386
14584 192061
14584 361001
14584 198809
14584 257733
14584 309631
14584 408008
14584 82301
14584 324660
14584 83960
14584 56445
14584 378435
14584 380113
14584 153656
14584 350828
14584 376218
14584 420083
14584 301751
14584 119919
14584 105171
14584 186797
14584 418170
14584 322488
14584 204743
14584 356145
14584 361702
14584 360246
14584 427244
14584 336039
14584 284141
14584 186758
14584 449962
14584 324456
14584 192910
14584 171840
14591 53384
14591 33486
14591 56200
14593 32972
14593 73810
14593 91301
14593 60035
14596 233798
276745 250519
14602 199555
14602 20997
14602 443658
14602 393782
14602 428825
14602 451857
14602 302830
14602 44988
14602 303195
14602 44991
14602 302941
14602 128120
14602 133047
14602 202466
14602 113868
14602 353672
14602 127640
14602 357473
14602 157722
14602 315057
14602 87211
14602 285353
14602 443762
14602 116515
14602 290459
14602 375663
14602 24158
14602 222169
14602 375456
276749 17460
276751 284631
276752 309831
14609 117661
14609 209528
14609 83771
14609 14615
14609 337050
14609 19913
14609 132037
14614 115663
14615 333695
14615 123619
14615 183212
14615 233368
14615 210602
14615 394894
14615 34308
14615 57105
14615 24029
14615 149002
14615 31696
14615 449083
14615 107894
14615 327076
14615 119385
14615 244676
14615 285550
14615 57447
14615 173112
14615 243442
14615 116631
14615 123832
14615 282165
14615 177829
14615 371540
14615 373119
14615 415915
14615 51816
14615 354883
14615 101132
14615 125331
14615 37515
14615 347714
14615 213680
14615 253808
14615 64277
14615 109171
14615 407786
14615 24820
14615 409790
14615 109326
14615 54388
14615 187801
14615 326336
14615 391526
14615 35362
14615 289525
14615 326615
14615 400472
14615 391306
14615 372456
14615 421373
14615 235425
14615 281634
14615 119695
14615 102309
14615 401419
14615 112484
14615 125989
14615 183908
14615 56768
14615 183593
14615 243238
14615 103849
14615 67740
14615 153656
14615 189998
14615 300796
14615 342218
14615 39261
14615 79359
14615 402787
14615 34989
14615 332544
14615 34033
14615 73698
14615 124091
14615 47168
14615 289453
14615 190181
14615 360528
14615 251100
14615 230370
14615 107036
14615 231416
14615 216281
14615 35334
14615 97221
14615 325702
14615 405192
14615 60035
14615 182158
14615 92684
14615 362462
14615 65261
14615 152011
14615 358546
14615 30255
14615 50769
14615 347032
14615 102340
14615 410643
14615 136607
14615 394798
14615 168249
14615 111648
14615 179204
14615 78126
14615 61876
14615 119214
14615 101845
14615 183020
14615 62182
14615 330534
14615 55951
14615 62168
14615 69127
14615 102501
14615 57731
14615 111189
14615 310920
14615 423767
14615 75771
14615 119401
14615 232764
14615 37812
14615 355347
14615 302981
14615 246315
14615 51810
14615 100659
14615 142532
14615 177309
14615 428879
14615 286172
14615 120759
14615 106923
14615 251810
14615 117737
14615 214671
14615 62170
14615 63960
14615 397052
14615 144551
14615 159793
14615 90277
14615 22075
14615 138739
14615 341232
14615 32967
14615 358957
14615 36984
14615 367297
14615 168821
14615 90968
14615 138135
14615 119399
14615 224337
14615 123350
14615 56664
14615 170071
14615 444373
14615 323948
14615 86960
14615 328959
14615 68758
14615 53285
14615 402352
14615 404784
14615 311690
14615 80251
14615 113913
14615 248808
14615 99652
14615 224109
14615 53441
14615 154179
14615 177114
14615 344696
14615 314240
14615 304844
14615 326976
14615 121389
14615 28156
14615 204373
14615 251090
14615 102336
14615 251204
14615 114791
14615 452702
14615 104902
14615 293050
14615 365318
14615 28115
14615 367479
14615 372144
14615 49179
14615 62241
14615 448880
14615 129145
14615 446474
14615 116323
14615 111730
14615 59604
14615 113895
14615 211761
14615 392705
14615 147903
14615 58554
14615 145826
14615 58095
14615 327325
14615 77594
14615 35590
14615 339175
14615 157722
14615 116890
14615 450409
14615 232481
14615 345037
14615 60403
14615 287616
14615 404953
14615 28103
14615 352317
14615 359521
14615 298329
14615 50338
14615 311223
14615 408827
14615 189665
14615 350720
14615 116511
14615 171846
14615 287370
14615 388943
14615 389419
14615 64307
14615 382099
14615 205168
14615 118283
14615 118527
14615 141168
14615 314856
14615 317205
14615 330698
14615 194434
14615 299086
14615 283641
14615 123836
14615 435615
14615 299765
14615 92363
14615 131538
14615 99596
14615 62950
14615 63289
14615 59905
14615 396133
14615 61748
14615 57426
14615 28153
14615 99036
14615 276866
14615 54367
14615 292660
14615 392142
14615 53366
14615 68753
14615 365649
14615 211687
14615 235473
14615 363422
14615 118424
14615 157176
14615 34236
14615 101838
14615 322210
14615 187586
14615 226653
14615 90980
14615 121760
14615 22072
14615 159166
14615 179939
14615 99038
14615 442314
14615 57984
14615 104057
14615 62358
14615 161216
14615 178864
14615 47159
14615 248956
14615 431115
14615 125814
14615 379960
14621 97434
14621 310080
14621 325247
14621 64277
14621 387385
14621 281353
14621 348607
14621 297078
14621 243883
14621 59945
14627 35365
14634 79043
276784 42380
14641 338431
14641 319264
14641 290119
14641 63704
14641 391351
14648 159221
14648 380249
14648 412429
14648 398723
14648 123928
14648 434057
14648 397550
14648 388283
14648 335608
14648 427130
14648 376510
14648 296982
14648 372120
14648 451968
14648 410835
14648 82688
14648 379115
14648 113634
14648 235765
14648 291532
14648 371719
14648 312826
14648 91347
14648 366173
14648 439725
14648 439949
14648 422556
14648 399796
14648 102358
14648 452667
14648 353767
14648 398496
14648 452011
14648 343874
14648 326059
14648 398056
14648 333179
14648 453517
14648 128986
14648 354280
14648 376325
14648 121572
14648 391830
14648 329568
14648 364392
14648 419544
14648 374465
14648 430161
14648 354561
14648 328808
14648 362003
14648 377701
14648 181403
14648 410217
14648 325750
14648 308206
14648 244680
14648 410558
14648 359535
14648 379200
14648 407029
14648 416714
14648 384691
14648 399426
14648 259709
14648 298764
14648 442275
14648 330308
14648 419861
14648 404953
14648 343216
14648 397686
14648 179816
14648 317888
14648 331419
14648 366564
14648 410428
14648 410795
14648 309061
14648 308372
14648 61437
14648 427096
14648 400893
14648 342627
14648 387533
14648 366901
14648 367298
14648 455434
14648 353904
14648 397418
14648 322779
14648 374579
14648 412767
14648 202525
14648 446270
14648 325332
14648 329332
14648 423073
14648 353193
14648 377666
14648 432144
14648 380245
14648 301495
14648 417169
14648 356287
14648 430800
14648 301032
14648 290236
14648 427624
14648 416245
14648 211176
14648 449943
14648 364009
14648 359179
14648 292886
14648 364122
14648 377386
14648 348733
14648 376079
14648 106110
14648 140250
14648 376436
14648 118629
14648 286824
14648 366304
14648 345228
14648 103609
14648 413579
14648 377343
14648 402327
14648 284153
14648 388705
14648 131926
14648 455203
14648 431096
14648 342508
14648 373468
14648 396501
14648 150924
14648 290538
14648 422959
14648 376195
14648 391422
14648 387470
14648 310201
14648 124247
14648 398504
14648 190333
14648 401148
14648 49743
14648 210649
14648 321074
14648 412294
14648 362113
14648 374029
14648 432142
14648 322147
14648 103729
14648 404498
14648 335068
14648 385863
14648 444015
14648 335108
14648 339262
14648 401692
14648 197641
14648 86455
14648 409549
14648 360050
14648 367266
14648 407435
14648 178276
14648 53315
14648 143472
14648 292315
14648 388675
14648 449608
14648 345405
14648 353196
14648 328682
14648 436577
14648 63029
14648 400286
14648 34218
14648 277077
14648 347382
14648 304156
14648 443752
14648 288652
14648 318774
14648 323251
14648 396247
14648 288283
14648 403186
14648 79005
14648 322641
14648 298949
14648 424427
14648 389223
14648 439298
14648 408498
14648 341798
14648 402112
14648 431182
14648 342765
14648 218284
14648 298583
14648 282019
14648 357001
14648 443657
14648 427496
14648 407293
14648 360243
14648 366431
14648 308369
14648 27746
14648 399362
14648 393705
14648 328646
14648 420121
14648 349416
14648 446781
14648 253320
14648 393818
14648 410851
14648 395843
14648 384635
14648 408625
14648 355373
14648 39213
14648 442276
14648 291293
14648 254324
14648 376883
14648 317031
14648 153339
14648 394080
14648 454458
14648 393905
14648 151969
14648 340676
14648 311219
14648 413429
14648 170500
14648 378977
14648 102543
14648 365515
14648 392484
14648 409409
14648 400691
14648 413950
14648 351875
14648 117816
14648 377270
14648 355163
14648 405264
14648 185501
14648 258929
14648 60613
14648 246188
14648 401218
14648 432037
14648 410354
14648 323029
14648 321444
14648 159223
14648 335930
14648 308211
14648 400521
14648 299192
14648 259740
14648 397194
14648 165925
14648 448672
14653 66291
14656 56725
14656 99088
14656 63242
14662 366173
14663 14683
14664 239425
14664 157722
14664 403678
14664 34105
14664 72987
14664 362995
14664 125161
14664 71580
14664 117924
14664 138055
14664 332669
14664 391837
14664 310403
14664 134238
14664 342881
14664 196228
14664 293598
14664 410345
14664 102389
14664 343367
14664 61550
14664 39277
14664 334930
14664 389283
14664 123917
14664 146216
14664 358540
14664 397365
14664 50386
14664 53483
14664 350059
14664 401921
14664 304230
14664 123600
14664 21090
14664 360882
14664 374205
14664 187948
14664 433258
14664 237076
14664 440583
14664 283841
14664 209951
14664 310769
14664 190948
14670 328698
14670 51714
14670 432242
14679 374340
14683 55963
14683 182051
14683 99135
14683 426025
14683 157855
14683 74185
14683 378543
276828 142286
14685 69123
14685 93523
14702 78017
276849 358457
276849 358458
14707 24848
276853 282972
276863 59945
14725 197986
14725 315431
14725 439308
14725 93292
14725 253830
14725 283115
14725 300356
14725 94022
14725 252720
14725 127448
14727 133103
14727 28596
14738 14746
276884 294416
14741 14746
14746 62322
14746 411414
14746 342868
14767 30422
14779 38280
14805 55533
14805 23260
14805 167411
14805 214412
14805 118897
14805 454521
14805 355985
14813 165303
14813 220585
14813 381710
14813 196967
14813 57749
14813 32351
14813 413601
14813 71184
14813 182635
14813 453582
14813 34499
14813 230187
14813 74377
14813 29986
14813 25930
14813 107293
14813 34452
14813 256237
14813 21282
14813 410361
14813 148547
14813 121058
14813 298885
14813 149332
14813 182899
14813 183203
14813 15857
14813 50286
14813 112530
14813 116957
14813 164295
14813 83329
14813 117293
14813 82591
14813 120630
14813 451298
14813 161870
14813 86508
14813 134470
14813 413484
14813 261916
14813 168933
14813 358551
14813 52382
14813 358702
14813 179242
14813 17566
14813 53966
14813 355611
14813 93907
14813 191321
14813 237175
14813 17141
14813 97385
14813 293127
14813 289645
14813 362205
14813 315180
14813 312360
14813 352004
14813 390608
14813 19343
14813 74764
14813 118915
14813 319193
14813 23013
14813 24750
14813 319194
14813 175396
14813 195542
14813 128320
14813 195543
14813 164206
14813 433790
14813 133462
14813 29650
14813 86082
14818 173743
276966 150028
14838 58594
14838 26969
14838 44283
14838 18700
14838 185820
14838 296360
276984 303589
14856 41792
14874 48532
14877 434514
14877 414325
14877 29563
14877 371170
14877 399340
14877 417952
14890 157322
14890 103976
14890 146522
277037 79577
277056 86395
277062 16460
14924 381928
14942 241713
277100 277102
14960 81405
277107 135174
14974 20752
277123 22547
14979 99369
14980 165362
14980 51181
14980 62653
14983 15123
14996 26894
277142 70550
15000 142238
15013 37356
15026 15856
15030 231095
15030 67414
15030 130359
15033 157106
277194 38085
15054 50901
277200 156547
15063 82468
15064 201872
277213 18168
15069 63899
277216 186152
15086 136594
277239 282926
15095 338950
15113 146317
15113 251108
15113 31432
15113 17865
15113 164061
15113 188977
15113 84489
15113 388286
15113 156834
15113 48303
15113 48267
15113 413588
15113 383740
15113 58800
15113 360932
15113 86253
15113 279352
15113 166906
15113 121251
15113 322792
15113 17011
15113 127697
15113 194024
15113 160701
15113 164694
15113 356020
15113 342253
15113 135980
15113 172751
15113 19691
277258 42927
15114 124786
15114 30118
15114 126742
277264 34236
15129 56106
277283 137564
15141 15209
15144 54468
15149 113708
277298 31534
277304 54550
277318 19913
15202 171858
15202 405619
15207 189778
15207 16739
15207 70007
15207 19582
15209 22651
15210 285440
15210 40998
15210 26177
15210 98645
15210 209004
15210 147024
15210 88685
15210 162874
15210 102563
15210 87373
15210 262125
15210 38806
15210 330142
15210 23976
15210 121676
15210 180281
15210 156342
15210 37428
15210 167461
15210 247778
15210 234323
15210 23940
15210 43794
15210 114293
15210 126956
15210 51181
15210 179259
15210 55087
15210 189652
15210 119180
15210 37443
15210 29502
15210 330141
15210 386964
15210 45391
15221 46715
15222 42045
15240 115382
15261 367725
15261 338911
277410 56684
15294 40037
15295 48914
277439 332461
15298 45186
277448 95903
277453 27004
15310 42064
15310 42794
15310 200751
15310 84557
15315 135682
15315 205262
277459 436015
15319 39576
277472 171466
15329 18299
277482 50733
277498 38448
15361 41011
15361 16230
277510 240909
277511 65331
15376 235807
15380 174416
277526 177709
277535 19913
15394 25020
277545 46510
15404 19584
15405 110903
15407 85653
15407 229417
15407 77804
15407 170554
15407 167297
15407 17761
15407 167299
15414 22713
15414 84072
15435 19870
277589 243650
15448 54579
277594 251822
15451 90640
15451 366295
15451 150866
15451 154597
15461 76143
15461 114255
15461 360144
15461 39439
15461 217197
277607 101377
277611 69237
277615 69237
277615 186272
277615 235567
277615 301879
277615 82105
277615 328773
15473 15521
15474 451488
15474 424581
15479 46433
15483 32532
15483 126371
15483 97296
15492 94208
277636 60695
15501 15521
277660 16323
15518 150202
15518 47998
15518 95124
15520 27800
277665 35813
15521 27738
15521 169168
15521 169165
277698 329008
15555 18168
15570 74826
15579 116735
15584 76639
15583 38477
15590 159745
15590 288581
15590 311633
15590 111441
15590 29871
15590 191507
15628 37946
277782 68278
277788 61948
277794 16455
277813 68278
277813 198048
15673 175513
15711 22601
277863 60518
15746 85586
15746 32665
277920 56860
277931 20228
15787 32226
15790 32069
15790 227758
15794 43723
15794 23212
15794 74781
15801 95863
15801 16088
15801 29226
15801 29617
277975 61978
277982 68278
277985 214802
15849 213572
15849 158421
15856 118955
15857 79773
15857 37295
15857 56297
15863 211937
15868 33831
278026 43677
15893 78281
15893 39879
15893 23782
15893 65999
15896 81203
15896 259332
278057 70550
15926 223055
15926 87919
15926 149865
15934 32226
278086 22053
278103 69237
278103 68308
278103 72382
15960 62015
15960 372837
15960 81985
15960 65938
15960 67198
15962 16011
15969 160342
278114 278113
278116 26136
278116 19913
15979 45391
15982 224030
278140 32008
15998 86344
15998 412123
15998 295807
15998 35827
15998 358299
15998 70230
15998 199540
15998 95240
15998 30912
15998 213377
15998 164196
15998 73580
15998 194060
15998 65999
15998 149467
15998 228949
15998 231228
15998 448540
15998 33340
15998 209616
15998 218985
15998 216190
15998 223100
15998 29477
15998 210877
15998 120385
15998 292675
16003 367347
16003 84658
16003 313186
16003 230882
16003 71676
16003 31373
16003 113223
16011 404085
16011 356550
16011 220170
16011 172851
16011 216643
16011 215395
16011 156537
16011 64506
16011 231268
16011 242516
16011 84785
16011 140058
16011 88376
16011 206086
16011 81405
16011 221761
16011 149419
16011 60517
16011 198004
16011 384784
16011 16096
16011 34617
16011 210768
16011 130762
16011 77834
16011 41203
16011 191639
16011 301759
16011 255503
16011 337992
16011 138435
16011 211875
16011 212693
16011 217261
16011 451827
16011 198380
16011 19118
16011 337261
16011 251697
16011 210230
16011 211036
16011 41187
16011 451387
16026 70011
278174 75721
16039 60539
278182 142421
16051 38312
16072 136594
16078 48226
278228 39889
16096 223682
16096 196412
16096 30239
16096 409160
16096 211021
16096 219690
16096 375626
16096 230129
16096 30624
16096 334778
16096 258687
16096 404281
16096 95723
16096 428529
16096 373773
16096 438732
16096 422511
16096 209603
16096 257043
16096 283062
16096 304042
16096 239419
16096 215754
16096 393492
16096 73082
16096 427781
16096 441028
16096 250554
16096 99507
16096 112560
16096 120200
16096 383199
16096 125260
16096 259420
16096 425177
16096 216449
16096 16851
16096 391545
16096 432491
16096 212816
16096 17625
16096 95620
16096 292279
16096 386143
16096 37443
16096 23376
16096 320882
16096 391243
16096 142683
16096 407262
16096 93009
16096 161319
16096 105382
16096 250591
16097 80299
278243 37545
278251 37317
16114 36541
16115 55002
16115 48600
16129 32347
278279 210336
16134 114161
278281 16313
16144 83412
16144 28253
278299 199413
278299 113866
16163 72543
16163 39984
16165 16216
16165 16168
278318 294416
278320 294416
16176 239328
16178 216712
16178 93059
16178 37737
16178 16195
278324 26241
278325 141893
16183 46328
16183 257094
16184 235984
16185 288871
278344 50299
16216 19850
16216 124128
16216 28647
16216 24858
16216 181492
16216 60550
16216 93884
16216 194358
16216 73835
16216 287254
16228 178192
16228 132742
278372 294416
16230 32943
16233 17655
16233 194142
278378 74544
16268 53920
16269 99369
278431 67032
16293 41526
16293 225904
16293 117454
16293 108713
16293 413213
16293 283266
16293 440346
16293 305515
16293 430234
16293 364270
16293 247969
16293 135053
16293 185013
16297 16298
16312 101750
16313 382591
16313 445688
16313 104580
16313 365529
16313 292133
16313 336887
16313 308687
16313 390088
16313 392772
16320 186439
16323 159273
16323 388968
16323 295127
16326 188032
278472 43673
16331 257963
278477 184726
16361 58744
16373 51631
278522 40279
278522 34719
16387 163074
16388 20343
278548 26195
278549 59893
16406 74016
16406 92791
16406 350982
278574 27004
16446 107884
16449 31258
16449 158445
16455 175149
16455 89557
16455 156959
16455 315824
16455 326677
16455 138026
16456 101094
16456 300898
16456 413498
16456 58569
16456 41957
16456 354828
16456 102712
16460 192409
16460 284271
16460 306537
16460 19458
16460 316999
16460 342231
16460 175064
16460 250111
16460 197305
16460 335761
16460 57885
16460 97989
16460 42028
16460 147219
16460 312411
16460 337090
16460 287983
16460 57237
16460 348200
16460 93577
16460 325179
16460 391322
16460 330483
16460 176147
16460 296987
16460 168701
16460 45594
16460 410446
16460 320140
16460 376612
16460 329816
16460 360684
16460 57908
16460 366938
16460 33580
16460 33623
16460 124749
16460 290893
16460 321544
16460 246721
16460 279711
16460 341852
16460 117992
16460 361753
16460 247842
16460 233123
16460 116651
16460 447218
16460 297928
16460 216104
16460 282886
16460 144625
16460 249934
16460 408297
16460 337062
16460 44368
16460 19492
16460 348138
16460 306858
16460 308564
16460 317275
16460 397322
16460 34106
16460 92653
16460 340872
16460 250893
16460 281514
16460 262118
16460 19465
16460 208123
16460 340434
16460 419130
16460 364541
16460 392280
16460 441682
16460 89594
16460 332997
16460 132103
16460 416891
16460 105950
16460 189839
16460 315375
16460 358337
16460 127012
16460 385805
16460 31044
16460 283807
16460 374744
16460 312549
16460 292318
16460 448831
16460 35792
16460 323286
16460 413412
16460 370045
16460 449387
16460 257733
16460 377896
16460 260922
16460 344675
16460 61666
16460 229907
16460 402886
16460 362489
16460 41915
16460 345415
16460 414754
16460 38105
16460 379877
16460 206019
16460 73401
16460 258895
16460 343764
16460 446206
16460 331077
16460 280523
16460 327710
16460 63507
16460 315679
16460 362864
16460 83558
16460 318034
16460 343770
16460 279294
16460 160131
16460 341549
16460 36376
16460 307695
16460 53209
16460 362021
16460 141526
16460 411416
16460 447487
16460 63310
16460 83745
16460 162171
16460 280938
16460 197808
16460 79692
16460 358045
16460 452308
16460 208933
16460 325879
16460 109879
16460 286462
16460 383356
16460 237863
16460 290680
16460 288522
16460 438862
16460 326012
16460 256670
16460 261122
16460 422333
16460 436303
16460 315378
16460 308257
16460 262100
16460 368452
16460 364422
16460 132206
16460 313194
16460 310714
16460 455226
16460 149390
16460 371701
16460 285408
16460 372163
16460 303026
16460 327585
16460 108507
16460 347417
16460 371449
16460 429445
16460 363106
16460 283540
16460 138619
16460 113060
16460 213516
16460 139078
16460 44179
16460 248043
16460 85014
16460 181158
16460 373660
16460 432474
16460 209704
16460 322938
16460 103785
16460 320664
16460 364687
16460 304964
16460 113517
16460 322899
16460 86146
16460 58569
16460 236140
16460 57904
16460 315484
16460 324281
16460 39398
16460 322717
16460 446387
16460 297521
16460 329225
16460 178958
16460 283565
16460 242026
16460 366585
16460 186661
16460 360785
16460 186668
16460 162962
16460 329974
16460 288353
16460 355041
16460 96666
16460 250126
16460 31000
16460 330617
16460 233129
16460 46290
16460 431462
16460 256822
16460 284705
16460 435126
16460 437646
16460 227274
16460 124619
16460 118008
16460 289057
16460 198336
16460 138842
16460 359850
16460 31966
16460 356785
16460 206650
16460 323439
16460 108294
16460 328673
16460 186655
16460 62743
16460 325464
16460 188596
16460 430555
16460 198803
16460 38142
16460 420356
16460 282271
16460 396559
16460 342750
16460 355437
16460 358711
16460 306880
16460 331693
16460 119394
16460 320236
16460 239016
16460 213196
16460 74596
16460 33396
16460 247460
16460 354807
16460 38123
16460 127290
16460 86881
16460 253968
16460 113511
16460 140866
16460 97430
16460 323015
16460 337459
16460 40776
16460 138875
16460 32483
16460 366872
16460 381278
16460 55742
16460 433852
16460 260970
16460 156755
16460 89430
16460 303094
16460 416612
16460 152746
16460 319075
16460 175146
16460 417317
16460 175650
16460 55748
16460 157314
16460 278921
16460 328742
16460 362371
16460 337707
16460 224912
16460 225596
16460 361890
16460 202123
16460 415068
16460 356951
16460 164401
16460 341121
16460 250852
16460 329998
16460 34663
16460 65496
16460 189726
16460 247021
16460 63313
16460 113199
16460 436468
16460 248412
16460 407934
16460 199257
16460 102870
16460 216106
16460 422155
16460 323394
16460 428266
16460 393977
16460 299268
16460 110312
16460 65581
16460 288412
16460 127013
278604 229959
16471 62542
16478 150784
16480 99851
278627 405465
278640 201629
278652 49004
16514 298697
16514 184020
16514 31217
16514 304565
16514 19913
16514 16527
16514 57995
16514 99137
16514 57105
16514 79032
16514 92134
16514 16528
16514 40266
16514 16546
16514 127388
16514 50340
16514 296898
16514 64729
16514 113870
16514 130382
16516 98636
16523 16527
16523 52329
16523 64729
16523 37507
16525 71207
16525 112846
16525 95221
16525 35130
16525 85903
16526 327286
16526 128147
16526 74810
16527 359477
16527 136607
16527 99978
16527 58228
16527 405068
16527 28121
16527 61716
16527 333719
16527 72947
16527 334930
16527 71971
16527 296012
16527 87987
16527 280782
16527 185179
16527 59406
16527 239933
16527 69127
16527 69851
16527 116743
16527 404042
16527 191655
16527 324414
16527 31838
16527 31832
16527 249817
16527 90906
16527 102300
16527 89236
16527 436441
16527 419107
16527 238097
16527 322519
16527 125342
16527 295967
16527 194405
16527 409792
16527 34236
16527 255966
16527 168393
16527 157722
16527 178951
16527 73148
16527 291392
16527 100117
16527 177321
16527 57494
16527 139041
16527 354083
16527 333437
16527 204239
16527 309011
16527 75346
16527 101789
16527 310048
16527 235473
16527 87867
16527 132123
16527 323370
16527 155672
16527 106535
16527 47015
16527 210170
16527 61094
16527 286464
16527 125823
16527 60034
16527 296605
16527 106902
16527 118527
16527 287442
16527 16533
16527 54355
16527 379869
16527 313518
16527 328882
16527 72724
16527 239940
16527 441263
16527 353111
16527 64729
16527 35263
16527 353849
16527 326368
16527 102497
16527 53882
16527 31824
16527 183212
16527 34963
16527 75187
16527 157714
16527 69123
16527 118461
16527 67896
16527 347601
16527 80454
16527 376688
16527 34513
16527 99036
16527 179671
16527 90041
16527 170205
16527 370482
16527 185105
16527 67891
16527 144551
16527 181290
16527 33719
16527 64987
16527 237689
16527 192458
16527 65543
16527 353413
16527 131538
16527 225114
16527 106110
16527 134066
16527 125210
16527 101821
16527 63800
16527 378613
16527 224040
16527 101838
16527 92071
16527 283924
16527 119824
16527 158334
16527 302800
16527 368866
16527 250944
16527 116269
16527 66415
16527 415915
16527 399033
16527 329399
16527 171541
16527 229481
16527 369414
16527 211770
16527 404043
16527 90572
16527 126956
16527 62168
16527 103788
16527 203089
16527 101422
16527 131143
16527 70639
16527 63388
16527 182158
16527 130319
16527 193415
16527 152620
16527 54359
16527 309913
16527 333331
16527 388928
16527 112219
16527 144380
16527 31945
16527 87324
16527 254864
16527 35450
16527 41939
16527 253560
16527 210487
16527 254913
16527 59378
16527 119958
16527 31696
16527 63469
16527 102521
16527 92618
16527 436648
16528 57105
16528 19913
16528 50347
16533 16547
16533 116687
16533 76084
16533 31255
16533 202542
16533 374294
16533 327619
16533 136607
16533 246315
16533 242758
16533 373419
16533 158706
16533 211580
16533 354280
16533 64729
16533 59234
16533 379869
16533 282558
16533 95227
16533 242356
16533 111718
16533 138044
16533 253228
16533 192131
16533 304526
16533 343007
16533 399362
16533 102228
16533 439949
16533 283924
16533 54359
16533 241407
16533 394651
16533 392972
16533 410119
16533 161593
16533 63392
16533 57092
16533 283457
16533 140791
16533 169701
16533 102356
16533 19913
16533 300652
16533 402069
16533 90979
16533 431376
16533 315885
16533 62195
16533 155668
16533 376196
16534 167073
16534 82674
16534 213834
278685 62542
16541 31088
16541 73819
16542 38277
16546 54359
16546 47824
16546 112487
16546 50340
16546 99084
16546 92134
16546 72884
16546 20920
16547 123930
16547 99021
16547 70818
16547 62164
16547 125568
16547 111009
16547 99038
16547 390970
16547 234622
16547 83790
278701 27712
278702 278703
16562 71719
278709 350086
16574 79227
16589 107640
16589 254710
16589 244393
16589 318197
16598 89644
16598 37777
16602 243675
16602 72572
16602 283505
16604 251691
16604 42685
16611 69824
16618 388240
16618 177122
16618 406145
16624 159856
16624 33060
16624 49555
16624 204977
16624 173378
16624 247060
16627 413753
278774 418439
278784 165058
278785 113099
278786 113099
278787 103870
16643 114108
16643 360370
16648 35612
278796 37545
278810 134951
16681 164453
16681 92856
16681 62458
16681 242525
16688 123950
16688 422545
16690 130451
16690 17024
16690 39882
16690 49894
16690 121058
278841 326340
16698 84030
16697 448908
16697 74786
16697 78770
16697 200787
16697 100471
16697 190411
16697 103711
278855 34719
16713 196658
16713 175789
16713 227007
278856 28462
16715 177594
16715 320529
16715 99689
16715 436407
16715 210355
16715 363222
16715 218821
16715 162087
16715 120386
16715 436636
16715 44288
16715 54410
16715 188166
16715 159518
16715 345032
16715 219706
16715 111707
16715 83982
16715 370591
16715 122995
16715 376302
16715 436915
16715 80565
16715 157159
16715 32375
16715 133181
16715 259934
16715 241937
16715 96971
16715 201953
16715 394079
16715 238118
16715 111957
16715 228138
16715 138185
16715 114291
16715 289013
16715 454920
16715 201863
16715 384900
16715 292028
16715 26801
16715 230565
16715 160927
16715 91171
16715 155171
16715 234337
16715 224422
16715 18517
16715 345033
16715 217367
16715 213322
16715 192393
16715 240366
16715 146496
278859 67950
16731 113683
16740 103620
16744 125231
16746 407257
16746 51148
16746 212003
16746 318136
16746 26465
16746 375461
16746 182649
16746 197910
16746 81545
16746 215979
16746 172683
16746 357147
16746 78534
16746 432107
16746 375462
16746 126961
16746 402785
16746 33508
16746 161026
16746 51359
16746 73423
16746 57042
16746 113772
16746 390443
16746 397653
16746 347774
16746 167145
16746 214280
16746 93237
16746 152984
16746 365235
16746 386685
16746 131207
16746 179761
16746 392375
16746 238516
16746 182496
16746 96690
16746 412896
16746 205905
16746 110642
16746 172682
16746 454727
16746 329620
16746 449607
16746 258475
16746 192390
16746 403147
16746 42798
16746 44691
16746 96689
16746 172681
16746 167167
16746 213236
16746 242264
16746 417754
16746 83453
16746 232011
16749 44394
278905 161147
278906 49940
16768 45215
16768 98119
16772 149344
16772 292345
278921 260478
16800 16831
16800 23809
16801 402917
16801 28554
16801 317961
16801 105843
16801 21539
16801 24121
16801 322327
16801 128915
16801 181618
16801 67504
16801 126288
16801 21646
16801 183890
16801 84902
16801 103447
16801 153827
16801 240790
16801 214671
16801 55521
16801 330474
16801 22295
16801 414125
16801 247654
16801 247101
16801 313374
16801 40679
16801 42170
16801 174116
16801 95800
16801 149443
16801 22004
16801 45395
16801 42825
16801 214455
16801 55810
16801 134412
16801 209427
16801 444871
16801 138373
16801 177909
16801 144026
16801 54579
16801 401358
16801 102682
16801 140181
16801 156668
16801 257094
16801 171708
16801 28253
16801 258889
16801 132371
16801 425807
16801 196228
16801 367298
16801 45082
16801 108267
16801 114508
16801 134408
16801 177685
16801 313570
16801 36559
16801 66443
16801 79782
16801 244270
16801 28802
16801 119006
16801 234653
16801 119111
16801 92739
16801 29502
278951 31031
16811 139794
16813 23809
278962 102588
278993 22806
278998 53817
279008 128559
16868 238238
279043 330169
279050 250519
279056 219131
279056 387687
279056 324388
279061 33787
279066 52469
279070 72937
279088 52474
279110 36368
16968 114330
16978 149639
16978 144305
16978 45275
16983 83104
16983 216333
16983 308410
16983 70734
16983 437254
279127 34312
279129 198048
16986 190015
279131 294416
16989 76528
16996 32135
16996 108649
279155 393444
279158 95905
279156 68278
279167 30223
17031 97543
17035 65392
17035 30591
279185 63115
17045 143197
17045 230546
17045 317868
17045 84841
17045 88705
17045 454358
17045 116197
17045 104950
17045 133141
17060 38873
17074 112525
279235 50347
17092 190653
279237 30857
279242 309654
17109 241098
17112 178214
17122 180270
17122 261257
17122 413449
17122 22029
17122 181842
17122 183832
17122 291043
17125 203541
279273 155779
17129 252642
17135 288958
17136 84030
279280 141501
17139 148858
17141 123790
279287 19999
17146 47388
17154 245151
17177 201098
279328 397604
17193 49125
279344 54202
17202 27738
279348 69237
17207 50945
17207 50948
17211 426507
279365 179887
17222 81405
17244 23129
279388 138853
279396 51757
17258 19714
279415 174421
279427 165229
279448 51757
17308 21770
17313 42182
17322 177160
17322 21843
279493 51757
17354 24750
279500 39295
17358 206489
17358 149196
17358 78052
17358 200771
17358 40793
17358 251307
17358 152562
17358 56635
17358 129914
17358 70053
17358 139139
17358 24902
17358 27461
17358 211341
17358 62798
17358 41402
17358 35720
17358 36351
17358 40231
17358 39984
17358 52699
17358 45186
17359 148140
279506 29225
17363 140094
279519 60379
279536 65141
279538 69891
279552 280910
279556 279559
279580 26241
17442 228395
17447 301459
279590 19913
279590 34719
279590 239123
279594 20988
279599 179273
17460 56333
17460 146004
17460 30364
17460 126308
17460 187324
17460 164646
17460 124276
17460 208116
17460 72111
17474 62543
17485 261517
17493 37803
17493 47300
279643 106209
279643 183977
279659 22806
17527 221852
17527 198639
17527 41179
17527 27483
17527 42182
17527 81181
17527 81183
17527 138455
279672 310853
17531 200768
17531 20019
17531 37803
279676 39515
279673 310853
279680 122488
17537 26634
17538 161910
17538 236692
17538 247780
17538 451625
17538 143829
17538 196467
17538 157230
17538 291369
17538 134057
17538 423634
17538 152712
17538 219085
17538 251978
17538 250242
17538 44210
17538 254367
17538 345684
17538 413586
17538 384403
17538 124202
17538 44306
17538 384882
17538 431721
17538 92419
17538 379555
17538 136873
17538 200801
17538 41729
17538 210252
17538 210859
17538 386876
17538 223484
17538 312966
17538 244118
17538 67474
17538 213016
17538 243744
17538 84905
17538 210640
17538 138169
17538 98551
17538 315364
17538 61944
17538 455720
17538 251176
17538 203563
17538 45861
17538 89640
17540 85290
17540 50901
17540 41179
279687 79945
17572 354973
17572 47202
279719 68278
17576 87789
17576 32956
17576 365179
17576 432447
17575 143183
17611 17637
17621 120103
17625 32226
279779 311205
279824 42927
279826 132005
279846 52474
17706 122881
17706 212896
17706 233729
17706 19351
17713 40013
279862 38250
279874 279875
17731 92434
279876 454582
17734 50531
279880 37803
17739 371928
17739 58841
17739 236086
17739 125473
17744 69995
279898 71338
17762 42428
17766 27635
17773 78585
17810 28330
17810 107640
17812 40756
17812 296488
279994 244337
280015 310651
17871 212560
17871 387223
17871 151979
17871 184644
17871 321609
17871 248466
17871 228680
17871 44784
17871 369224
17871 29493
17871 82142
17871 193112
17871 104815
17871 205945
17881 250733
17881 100564
17881 38244
17881 41795
17881 165533
17881 21299
17881 19520
17881 76737
17881 28938
17881 175577
17892 415593
280041 150659
280041 407122
17902 255412
17902 23569
17902 369311
17902 423635
280053 241152
17912 183075
280057 58992
17930 136108
17930 233651
17930 44239
17930 71729
17930 52784
17939 42335
17939 24919
17939 187228
17939 211640
17939 149737
17939 186760
17939 140301
280086 341063
17947 29381
17947 95683
17947 98315
17947 186455
17949 221219
280103 294416
280107 294416
17964 23465
280110 294416
17966 167271
17966 207563
17966 232805
17966 17983
17966 18957
17966 30408
17966 18517
280113 294416
280118 294416
17978 80206
17978 137017
17978 56330
17983 22185
17983 18517
17989 209610
17989 24721
17989 84788
17989 95953
17989 81959
17989 24676
17989 134110
17989 141429
17989 24720
17989 162404
17989 331190
17989 212169
280136 294416
280137 294416
280145 59159
18002 199254
18002 95547
18019 147241
280165 22636
18040 27483
18043 96758
18061 176307
18065 400421
18065 200332
18079 71668
18079 94312
280229 53504
18087 212510
18091 21849
18091 168933
18091 139939
18091 132832
18099 202609
18099 60349
18099 162636
18099 42837
18099 81105
18102 24873
18103 40970
280250 19913
280251 20920
280268 92580
18129 84902
18129 19778
18151 40926
18153 160621
18157 65901
280306 251819
18168 292120
18168 449610
18168 106477
18168 350107
18168 20497
18168 20395
18168 31333
18168 241045
18168 23934
18168 135664
18168 194962
18168 50929
18168 147328
18168 106353
18168 155918
18168 280581
18168 62790
18168 80754
18168 22207
18168 128233
18168 101209
18168 28847
18168 78904
18168 19283
18168 73457
18168 36666
18168 86357
18168 136098
18168 163640
18168 173226
18168 27262
18168 408697
18168 141303
18168 35155
18168 135251
18168 190088
18168 60283
18168 384458
18168 66126
18168 131066
18168 121058
18168 455908
18168 126567
18168 130981
18168 83112
18168 67861
18168 310388
18168 227680
18168 135818
18168 185185
18168 88769
280315 224709
18177 43183
18178 84161
18178 222917
18182 122156
280344 73979
280350 54550
280363 54200
18221 22426
280368 152836
18227 27864
280372 43701
280373 198173
280405 27738
18271 21366
280418 27738
280430 94160
18311 45230
18311 53936
280461 232573
18320 409269
18320 29188
280468 83947
18343 121058
18343 72710
18349 336604
18366 19987
18371 215405
280518 141612
18395 68406
280540 223995
280544 337579
18406 55168
280557 68278
280559 198048
18439 50065
18441 65141
18443 86678
18446 18450
18450 85457
18450 75888
18450 190712
18450 19965
18450 68809
18450 86623
18450 114539
280601 42927
280607 239296
280617 30230
280626 434500
18491 143979
18492 24898
280639 155510
280657 99756
18517 26906
280660 76561
280678 36371
18537 33199
280682 280681
18547 62058
18547 55649
18547 295288
18547 112736
18548 53920
18558 121183
18577 18580
18580 29412
18580 229036
18606 121459
18606 47470
280780 33476
18649 149323
18649 136986
18654 372897
18654 76674
18654 161007
18654 113707
18654 48787
18654 386107
18654 42056
18654 345550
280798 110903
18660 120057
18662 27591
18662 287311
18662 156493
18662 205598
18662 234439
18662 165119
18662 361257
18662 223969
18662 245229
18662 261070
18662 182290
18662 18715
18662 344851
18662 165157
18662 198165
18662 135322
18662 229407
18662 206551
18662 442546
18662 25609
18662 393262
18662 196514
18662 364905
18662 21619
18662 412947
18662 255227
18662 25608
18662 373737
18662 413088
18662 296278
18662 236136
18662 369181
18662 427623
18662 293559
18662 236418
18662 281969
18662 18692
18662 18947
18662 151176
18662 194395
18662 187821
18662 45594
18662 321652
18662 386411
18662 195404
18662 32914
18662 250984
18662 254339
18662 223683
18662 124467
18662 161296
18662 151449
18662 126066
18662 69625
18662 374490
18662 186938
18662 386135
18662 229808
280809 197770
18666 60340
18666 39752
18678 40972
18678 77294
18689 66235
18693 131791
18694 25820
18694 115382
18700 77377
18700 195232
18700 172166
18700 85421
18700 353013
18700 74088
18700 55664
18700 233357
18700 143984
18700 257225
18700 225159
18700 26825
18700 193869
18700 171327
18700 197078
18700 73130
18702 73772
18702 100297
18717 359755
18717 171115
18717 44925
280888 68278
18747 257376
280897 220468
280900 100359
280901 101717
18759 92153
280928 114415
280928 36247
18787 18792
18792 144108
18792 86362
18792 141582
18792 79262
18792 81405
18792 166625
18792 43397
18792 310804
18792 196617
18792 61583
18792 188822
18792 285133
18792 200971
18792 25125
280938 241721
280942 28063
280951 40279
280952 35372
280953 59893
280959 433454
18817 241815
18817 405399
18817 259348
18826 63115
18826 42955
18845 253765
18845 79252
280993 19913
18852 250519
281002 86844
18867 18915
281013 399603
18879 47803
18891 51926
18906 50901
18915 219436
18915 67515
18915 84076
18915 98211
18915 65917
18915 194828
18915 83666
18915 21325
18915 40366
18915 233004
18915 41796
18915 186567
18915 25531
18915 160293
18915 149888
18915 45391
18915 99815
18915 115484
18915 94170
18929 94804
281074 118333
281077 207849
18939 33215
281083 67572
281083 69237
281091 128559
18950 184674
18952 41010
281118 187445
18988 76810
281152 119754
281157 281158
19019 158619
19019 40880
19022 109191
19029 171344
19029 157843
19029 187352
19029 114289
19029 23594
19029 23950
19029 171353
281176 354883
19038 150512
281188 250519
19052 157587
19055 430686
281208 30578
19078 228823
19078 114109
19078 70277
281250 105722
281252 59987
19115 79152
19115 44706
19115 23962
19115 91896
19116 136594
19117 114305
19118 37443
19139 230415
19139 125003
19140 52002
281286 334107
281298 27738
281299 72657
281300 106758
19156 60035
19157 63263
19159 72743
19159 304417
19159 414645
19159 72757
19159 284141
19159 204743
19159 435183
19159 233774
19159 64311
19159 418797
19159 34924
19159 378513
19159 377747
19159 339562
19159 71569
19159 378352
19159 283192
19159 137908
19159 154870
19159 215191
19159 131945
19159 362432
19159 437271
19159 78527
19159 403347
19159 401942
19159 205453
19159 75165
19159 134883
19159 342741
19159 171309
19159 182018
19159 105982
19159 211783
19159 83781
19159 333943
19159 363621
19159 102479
19159 382692
19159 387947
19159 190895
19159 103969
19159 198245
19159 120924
19159 57174
19159 140758
19159 286533
19159 98472
19159 401339
19159 58569
19159 58151
19159 35450
19159 70680
19159 186098
19159 333363
19159 61105
19159 432533
19159 65879
19159 340112
19159 186797
19159 221315
19159 31224
19159 35109
19159 382470
19159 446245
19159 353381
19159 26356
19159 321923
19159 56449
19159 426562
19159 130426
19159 211760
19159 333346
19159 106424
19159 281706
19161 244111
19161 91333
19161 248830
281311 99156
281313 51755
19171 40354
281317 245427
19180 19191
281332 350666
19191 78872
19193 111908
19197 33831
19212 385942
19212 250332
19224 110368
19226 160659
281380 187844
281383 48656
19243 70048
281388 68278
19265 63327
19270 23932
281416 31234
281449 389487
281453 59945
19331 22084
19334 19344
281482 255884
19342 89145
19343 253705
19343 146051
19343 174093
19343 168438
281486 147178
281486 35365
19348 142455
281498 31549
281503 42182
281503 41383
281505 59542
281514 312195
19377 334996
19384 30780
281530 281531
19392 456205
19393 21915
281538 281540
19395 111953
281554 31534
19416 129697
19416 148054
19426 292386
19426 392175
19426 448981
19426 180496
19426 22523
19426 434750
19426 335633
19426 327555
19441 74822
19441 325224
19441 73917
19441 245231
19441 440369
281600 206897
19457 30857
281607 28091
281609 56725
281610 37559
19474 128559
19480 42922
19491 32488
19495 128559
281662 20733
19533 19913
19533 110914
19535 130243
19541 29226
281691 154462
19556 73917
19559 401820
19559 440489
19559 383906
19559 208407
19559 386276
19559 431481
19559 349362
19559 455126
19559 413287
19559 171273
19559 447798
19559 395790
19559 227025
19559 299957
19559 442083
19559 226574
19559 417262
19559 454723
19559 255554
19559 308890
19559 442034
19559 290061
19559 407987
19559 182280
19561 123601
19561 118294
19561 53358
281724 68278
281727 74014
19601 63359
281750 144725
281750 47196
281750 99770
19629 198015
281781 355308
19655 77991
19658 438844
19658 88287
19658 76233
281805 19908
19679 79939
281829 31549
281840 73855
19697 176698
19714 43426
19714 197908
19714 134336
19714 49723
19714 124595
19714 147461
19741 99369
19743 134969
19746 359298
19754 204600
52887 27982
19778 84902
281926 71394
19794 24676
19800 95114
19804 27738
19808 47140
19808 162686
19818 19913
281964 111767
19821 135327
19820 94071
19837 208562
19837 20716
19837 44183
19839 23477
19841 29259
19857 179159
19862 102923
19862 333565
19870 148436
19870 339969
19870 155612
19870 258406
19870 290063
19870 180496
19870 141739
19870 56333
19870 113366
19870 96752
19870 56611
19870 155040
19870 307924
19870 239216
19870 234849
19870 87919
19870 282758
19870 142684
19870 426236
19870 307923
19870 448600
19870 292551
19870 43168
19870 50620
19870 338681
19870 349909
19870 206871
19870 42850
19870 50195
19870 108383
19870 346548
19870 240987
19870 347538
19870 47084
19870 82732
19870 154254
19870 197486
19870 408507
19870 450463
19870 341293
19870 380469
19870 168211
19870 315548
19870 101238
19870 37428
19870 207247
19870 112683
19870 113847
19870 127479
19870 256687
19870 429661
19870 29997
19870 380485
19870 422784
19870 186859
19870 118514
19870 188212
19870 401154
19870 244005
19870 261259
19870 237329
19870 432584
19870 33954
19870 73097
19870 437229
19870 87038
19870 296008
19870 149332
19870 103439
19870 306155
19870 343655
19870 364277
19870 221491
19870 143748
19870 442735
19870 35527
19870 167942
19870 213160
19870 383269
19870 79422
19870 411466
19870 315402
19870 250019
19870 21198
19871 36854
19871 162654
282017 187280
282018 56698
282020 137483
282027 178192
19892 20103
282038 294416
19894 127551
282040 294416
282044 294416
19906 85946
19908 139025
19908 379506
19908 439213
19908 383453
19908 438260
19908 433937
19908 305265
19908 436881
19908 338902
19908 431824
19908 410282
19908 403759
19908 394234
19908 365918
19908 395356
19908 440897
19908 321238
19908 438159
19908 75442
19908 431039
19908 427595
19908 435451
19908 295840
19908 374193
19908 388048
19908 377515
19908 435696
19908 433056
19908 308344
19908 376814
19908 427974
19908 23728
19908 327483
19908 365641
19908 162377
19908 421623
19908 431837
19908 443968
19908 146914
19908 250136
19908 426990
19908 322418
19908 229811
19908 411593
19908 391495
19908 410026
19908 366712
19908 335475
19908 283714
19908 336127
19908 289374
19908 452890
19908 380674
19908 426318
19908 433055
282053 124723
19909 393216
19909 245261
19909 119011
19913 377612
19913 125963
19913 388855
19913 306553
19913 159448
19913 43937
19913 329835
19913 35590
19913 204128
19913 310213
19913 258580
19913 31335
19913 133918
19913 307094
19913 340987
19913 349402
19913 331831
19913 374667
19913 66278
19913 375445
19913 209586
19913 336208
19913 255249
19913 27703
19913 78973
19913 30440
19913 86905
19913 182158
19913 105984
19913 34236
19913 59352
19913 35736
19913 299597
19913 64994
19913 97495
19913 105393
19913 34708
19913 130244
19913 65554
19913 180887
19913 31938
19913 309105
19913 210556
19913 62583
19913 57205
19913 314495
19913 310080
19913 297144
19913 370225
19913 116743
19913 200084
19913 39618
19913 63164
19913 53977
19913 299031
19913 331531
19913 100226
19913 24033
19913 440433
19913 141421
19913 410094
19913 416775
19913 420137
19913 102336
19913 413183
19913 132118
19913 331052
19913 391937
19913 238586
19913 104562
19913 139316
19913 60154
19913 334258
19913 296986
19913 315490
19913 146504
19913 82421
19913 109151
19913 125153
19913 191556
19913 102521
19913 159603
19913 34513
19913 160932
19913 60066
19913 127311
19913 87987
19913 186232
19913 359525
19913 389377
19913 146766
19913 362531
19913 213971
19913 28156
19913 259586
19913 45459
19913 158334
19913 362646
19913 178031
19913 53285
19913 443078
19913 148232
19913 225426
19913 316168
19913 315950
19913 442391
19913 355347
19913 232501
19913 354282
19913 111718
19913 376927
19913 384561
19913 245771
19913 392061
19913 45427
19913 328959
19913 53886
19913 75991
19913 168979
19913 428993
19913 102322
19913 414735
19913 333719
19913 71547
19913 327579
19913 141036
19913 45925
19913 382624
19913 386672
19913 320852
19913 261653
19913 187781
19913 339946
19913 364695
19913 299765
19913 80251
19913 384901
19913 294748
19913 406818
19913 69127
19913 90979
19913 21090
19913 53442
19913 339646
19913 21728
19913 342425
19913 31564
19913 335468
19913 337855
19913 440645
19913 291329
19913 254684
19913 392705
19913 121575
19913 260663
19913 358629
19913 224040
19913 117677
19913 53216
19913 366788
19913 240949
19913 408669
19913 360342
19913 323077
19913 170071
19913 431695
19913 88514
19913 248412
19913 455175
19913 123911
19913 341691
19913 109833
19913 283131
19913 329307
19913 383677
19913 86973
19913 35737
19913 65548
19913 102517
19913 406647
19913 199317
19913 448041
19913 387534
19913 189297
19913 59385
19913 207714
19913 252829
19913 102227
19913 282192
19913 59387
19913 70630
19913 354964
19913 192620
19913 35334
19913 158698
19913 57105
19913 384802
19913 33478
19913 58778
19913 353729
19913 63278
19913 324447
19913 33709
19913 309808
19913 261801
19913 289905
19913 364048
19913 340110
19913 108149
19913 363944
19913 127160
19913 393354
19913 117882
19913 89229
19913 40312
19913 209263
19913 412827
19913 181923
19913 241407
19913 139612
19913 321945
19913 413884
19913 285273
19913 353616
19913 425338
19913 27741
19913 109672
19913 145736
19913 298764
19913 444770
19913 326253
19913 355920
19913 61155
19913 319951
19913 243019
19913 317795
19913 61090
19913 196199
19913 345547
19913 96803
19913 170629
19913 363300
19913 328117
19913 335982
19913 87862
19913 128091
19913 160813
19913 283634
19913 376698
19913 134819
19913 57494
19913 33719
19913 163350
19913 414758
19913 358020
19913 254864
19913 370280
19913 31696
19913 383967
19913 364689
19913 189238
19913 84172
19913 291152
19913 179281
19913 194201
19913 19925
19913 375556
19913 304745
19913 379461
19913 78025
19913 68823
19913 365315
19913 349582
19913 315162
19913 188083
19913 83259
19913 315056
19913 444764
19913 358348
19913 201454
19913 387929
19913 71207
19913 303328
19913 176384
19913 166438
19913 31859
19913 327161
19913 62970
19913 286739
19913 259311
19913 91740
19913 178688
19913 100967
19913 99727
19913 330457
19913 157737
19913 35113
19913 375127
19913 339316
19913 324449
19913 333600
19913 328882
19913 395979
19913 127005
19913 196623
19913 113722
19913 287570
19913 164422
19913 71234
19913 61550
19913 256484
19913 112479
19913 361954
19913 113385
19913 341874
19913 159073
19913 205410
19913 178566
19913 58569
19913 250930
19913 349973
19913 404263
19913 454472
19913 242602
19913 22072
19913 65689
19913 389020
19913 353534
19913 413214
19913 436166
19913 80044
19913 138676
19913 393432
19913 394042
19913 322210
19913 247656
19913 341072
19913 358947
19913 296984
19913 239393
19913 225708
19913 22635
19913 62195
19913 99038
19913 127388
19913 47168
19913 45239
19913 183908
19913 35265
19913 139304
19913 230660
19913 413749
19913 122381
19913 41392
19913 35361
19913 117287
19913 431585
19913 302770
19913 182048
19913 340374
19913 222169
19913 371139
19913 302400
19913 196113
19913 98759
19913 102352
19913 320863
19913 319841
19913 87869
19913 39497
19913 104381
19913 78784
19913 422281
19913 293864
19913 329380
19913 60974
19913 138674
19913 384663
19913 89202
19913 417439
19913 301612
19913 38150
19913 197645
19913 453512
19913 116368
19913 230370
19913 349848
19913 435444
19913 180089
19913 424953
19913 173711
19913 331154
19913 386591
19913 338287
19913 343007
19913 288405
19913 399781
19913 229481
19913 54359
19913 288841
19913 448830
19913 389289
19913 28462
19913 218182
19913 303419
19913 73183
19913 313001
19913 207030
19913 49717
19913 92015
19913 158714
19913 49017
19913 224006
19913 59502
19913 95064
19913 310762
19913 119358
19913 102479
19913 31022
19913 59905
19913 370714
19913 112817
19913 87199
19913 31727
19913 233448
19913 137710
19913 71286
19913 402668
19913 19987
19913 314940
19913 374141
19913 159942
19913 178976
19913 420527
19913 428138
19913 113727
19913 304565
19913 366771
19913 61438
19913 235477
19913 132002
19913 68758
19913 342030
19913 61109
19913 360248
19913 56214
19913 352317
19913 311113
19913 333931
19913 31224
19913 395557
19913 71626
19913 394309
19913 145438
19913 297098
19913 409092
19913 440053
19913 185397
19913 185909
19913 56449
19913 92684
19913 288995
19913 189665
19913 324919
19913 225098
19913 429891
19913 90041
19913 180528
19913 377164
19913 63304
19913 65227
19913 130530
19913 301750
19913 425048
19913 162007
19913 337099
19913 335974
19913 284651
19913 102359
19913 285550
19913 135803
19913 378439
19913 325657
19913 44990
19913 176800
19913 343060
19913 225428
19913 366171
19913 224821
19913 320464
19913 183600
19913 87984
19913 84359
19913 24029
19913 347754
19913 183764
19913 135295
19913 344013
19913 102114
19913 359407
19913 128364
19913 256393
19913 170495
19913 116222
19913 88515
19913 61545
19913 196428
19913 214671
19913 374832
19913 334452
19913 407553
19913 119072
19913 314229
19913 398573
19913 139041
19913 309244
19913 72743
19913 155465
19913 423310
19913 359521
19913 74957
19913 106000
19913 51816
19913 210487
19913 354268
19913 316075
19913 202121
19913 62168
19913 306760
19913 403199
19913 160931
19913 58053
19913 68821
19913 413384
19913 67988
19913 356145
19913 99978
19913 198300
19913 435178
19913 286172
19913 136228
19919 292823
19919 63406
282066 67792
282071 150665
282071 419580
19932 134323
282075 57269
19944 117016
19945 115113
282093 225062
19952 289999
19958 19966
19966 49744
282118 114357
282123 156605
19981 50065
19987 53285
19987 64685
19997 88523
19997 119311
19997 123876
19997 333392
19999 113106
282146 333577
20020 50948
20046 40752
20046 210248
20046 201659
20061 76500
20064 141647
20064 81195
20064 45830
282208 81648
20069 37803
20071 44306
20072 52060
282217 27738
282227 122498
282230 282231
20095 21814
20103 224697
20103 432105
20103 411857
20103 369220
20103 440436
20103 441086
20103 389701
20103 287675
20103 70870
20103 21657
20103 441234
20103 438101
20103 444418
20103 424313
20103 355955
20103 432734
20103 334772
20103 444081
20103 344392
20103 448514
20103 292232
20103 420442
20103 366553
20103 288819
20103 288723
20103 448595
20103 321238
20103 147003
20103 258127
20103 208988
20103 448088
20103 429936
20103 249288
20103 128950
20103 290233
20103 420459
20103 358143
20103 168523
20103 288312
20103 244819
20103 362731
20103 425259
20103 222020
20103 437089
20103 146932
20103 433679
20103 235377
20103 428384
20103 241284
20103 445182
20103 333009
20103 438739
20110 20183
20111 72565
20111 110161
20111 20291
20111 364230
20111 105197
20111 28300
20111 321932
20111 50864
20111 158170
282265 28462
282265 317153
20130 43862
282277 176648
20139 373727
20139 137339
20139 222649
20139 162558
20152 91115
20152 20198
20152 37964
20155 79592
20159 22825
20167 145323
282326 74014
20183 69831
20192 340514
20192 412766
20192 237291
20192 298231
20192 179733
20192 53406
20192 66527
20192 354011
20192 173157
20192 155341
20192 134251
20198 89459
20199 81321
20199 131668
20204 59945
282352 27004
20210 69831
282355 24251
20222 20311
20222 68388
20223 20265
20228 317533
20244 249877
20244 46659
20244 109023
20244 167245
20244 157042
20244 136802
20244 288963
20244 332061
20244 424253
20244 379584
20244 136806
20244 243742
20244 201773
20244 386564
20244 435679
20244 22817
20244 66529
20244 166953
20244 138216
20244 353788
20244 313773
20244 194695
20244 111163
20244 373145
20244 108548
20244 443372
20244 294227
20244 92033
20244 201459
20244 230639
20244 260780
20244 224959
20244 81591
20244 173998
20244 140111
20244 178167
20244 229386
20244 260928
20244 172573
20244 72290
20245 162315
20246 317924
20246 301038
20246 336751
20246 148734
20246 250436
20246 37338
20246 438854
20246 87590
20246 445586
20246 325348
20246 381448
20246 437936
20246 329729
20246 283529
20246 298188
20248 39688
282392 433454
20251 38593
282397 54550
20253 89462
20253 37964
20253 28304
20253 118753
20253 20336
20259 317533
20259 174915
20259 81318
20259 409054
20261 156668
20261 28986
282409 66828
20265 38593
20265 378623
282417 34719
20273 110903
282431 38210
282434 436015
282436 197754
20293 202058
20293 398027
20293 162343
20293 192066
20293 245801
282448 221325
20320 28309
20323 349630
20329 225177
20329 192065
20329 283904
20329 375280
20343 114977
20343 173993
20343 147960
282488 135307
20366 21455
20373 60380
20373 51181
20373 209613
20373 138444
20375 216060
20375 37428
20376 33831
20391 50751
20392 27869
20402 77939
20433 20434
20452 77352
282600 161125
20457 64167
20454 91666
20465 149260
20465 83820
20465 132118
282615 68702
282615 282616
282616 240095
282616 240091
20485 21289
20485 28807
282635 368173
282635 65381
20500 28542
282654 129563
20517 58226
20520 20521
20530 183049
20542 317906
20547 54550
20562 96570
20562 118675
282721 34642
282739 230335
20596 47982
20596 303161
20596 285331
20596 254240
282749 146259
282749 95905
282749 95917
282758 111325
282758 282763
20636 47753
20636 259021
20636 85973
20636 32315
282790 116683
282790 80851
282800 26179
20710 75797
20711 75797
20714 163541
20717 75797
20718 156886
20718 86039
20718 45702
20718 48920
20718 75797
20718 93051
20718 292724
20718 103447
20719 162362
20716 113699
20716 177829
20715 79543
20715 156888
20729 393584
20729 319970
20729 44243
20733 54089
20733 129122
20733 190020
20733 161543
20733 414421
282880 99369
20746 107448
20746 112831
20746 48382
20746 38443
20752 36864
20752 51369
20752 125235
20752 148223
20752 74986
20752 404742
20752 101317
20752 428972
20752 32686
20752 47538
20752 70251
20752 147461
20752 122892
20752 159837
20752 62919
20752 36411
20759 20764
20781 110966
20825 208202
282973 89016
282979 285252
282994 236585
282994 295172
20905 167113
20905 41755
20905 75951
20905 31772
20905 167109
20905 102371
20908 56449
20908 35097
20908 56441
20909 58074
20909 35366
20915 40780
20915 98917
20917 56422
20917 28168
20920 376099
20920 331912
20920 361977
20920 93598
20920 63271
20920 57425
20920 240384
20920 126512
20920 296986
20920 252696
20920 34516
20920 396812
20920 44053
20920 183595
20920 37035
20920 356145
20920 301331
20920 371251
20920 43937
20920 328882
20920 54142
20920 148768
20920 297926
20920 406277
20920 53216
20920 95069
20920 260488
20920 311690
20920 119678
20920 370280
20920 33711
20920 99021
20920 117677
20920 309244
20920 393039
20920 200593
20920 154179
20920 56209
20920 61148
20920 342482
20920 368577
20920 172416
20920 130384
20920 195051
20920 140791
20920 123194
20920 130332
20920 45424
20920 21009
20920 419982
20920 406115
20920 69851
20920 91315
20920 204743
20920 375752
20920 108154
20920 384212
20920 357648
20920 57127
20920 72854
20920 119112
20920 107719
20920 50380
20920 446474
20920 289834
20920 119966
20920 291210
20920 355254
20920 186427
20920 252309
20920 61006
20920 352651
20920 59947
20920 86991
20920 364029
20920 412071
20920 446376
20920 311783
20920 345918
20920 78527
20920 345677
20920 293644
20920 361406
20920 207022
20920 139304
20920 402341
20920 364151
20920 364876
20920 69127
20922 21068
20931 47821
20934 179694
20939 34950
20939 189666
20939 252801
20939 189661
20939 189668
20942 56675
20942 61118
20948 452798
283094 184212
20958 75968
20963 103116
20972 31698
20972 28083
20982 331769
20982 21107
20982 98609
20982 128670
20982 350410
20982 415340
20982 237535
20982 63517
20982 243482
20982 44040
20982 300020
20982 300021
20982 307808
20982 446394
20982 351677
20986 53385
20988 337849
20988 58080
20988 128432
20988 21004
20988 198383
20988 72730
20988 288650
20988 170884
20991 315268
20992 37545
20997 49695
20997 58157
20997 63497
20997 119324
283146 115006
21002 90041
21002 90043
21002 39441
21002 57217
21008 136629
21009 69891
21009 32972
21014 31832
21031 249585
21038 34963
21042 51704
283188 50539
21043 391526
21046 58154
21049 64301
21059 56423
283210 300365
21068 57973
21068 135764
283215 204358
283215 287077
21075 313162
283225 57114
21097 58183
21097 338674
21097 34950
21097 61139
21107 52959
283262 57159
283263 57159
21122 110903
21122 41179
21122 89784
283279 195941
21135 155984
283297 342688
21155 35622
21156 224709
21158 191123
283303 51757
21180 24404
21187 39874
21191 105979
21195 73941
21198 132641
21198 107945
21198 109013
21199 107939
283346 433454
283347 433454
21209 27738
21223 253377
21232 26307
283376 109191
21234 57105
21234 60496
21241 42182
283393 28930
283402 69889
283410 57426
283410 110448
283412 37134
21270 117767
283418 52474
21278 442795
21279 450549
21279 411734
21279 157804
21299 49123
21310 25271
283457 71549
283457 101845
283457 57105
283457 49179
283457 249104
21314 364102
21314 194710
21314 258664
21314 63621
21318 234772
283465 86372
283466 22823
283467 294416
283470 294416
21327 28857
21327 22470
21340 27768
283494 89016
283494 68278
283497 283499
21361 65136
21361 53543
21361 87094
283506 155218
21366 42689
21366 42677
21377 52793
21385 50733
21386 88817
21386 141287
283535 62943
283535 28476
21392 117680
21392 34794
21392 210871
21391 317012
21425 21441
21439 21441
21441 223226
21455 37233
283608 104574
283610 71320
283611 59945
21479 101625
21479 302530
21482 54550
283634 59945
21494 149375
283641 56677
21502 149375
21504 448018
21522 114498
21522 381825
21522 245954
21522 296205
21524 322872
21528 27089
21528 117375
283683 48182
283703 141619
283742 118099
21604 213425
21604 146969
21604 100903
21611 166096
21611 79052
21612 191458
283758 90107
21617 60469
283763 42182
21622 89188
21622 163889
21622 23385
283764 42182
21629 286343
21629 220789
21634 191866
21634 244637
21638 298797
21638 288720
21638 127551
21665 22949
21670 250948
21672 190241
283830 38085
21695 55978
21695 23204
21695 61820
21695 98556
21695 159768
21695 108810
21695 407810
21695 23237
21695 158884
21695 138038
283841 62210
21701 407810
21718 33471
21718 54363
21719 28115
21727 32972
21731 86297
21731 73860
21733 288958
283889 79423
21747 124459
283901 117063
283904 79959
283904 39959
21770 59557
21777 81752
21782 162952
21782 171691
21782 111181
283927 363895
283954 181068
21814 96897
21814 241545
21814 351267
21814 223649
21814 154570
21814 245954
21814 75803
283961 243981
21818 432084
21819 58366
21838 182601
21838 189661
21847 125469
21863 136658
284026 37134
284027 104574
21884 42401
21885 42177
21893 50203
21893 400798
21898 108837
21903 33601
21909 21930
284078 157104
284080 38941
21942 113223
21942 70258
284102 70958
21962 172943
21962 159553
21966 119768
21966 247579
21966 143239
21966 214569
284113 30324
284121 408564
21979 196658
21979 241331
21979 347538
21979 118793
21979 411492
21979 221906
21979 108578
21979 56333
21979 129254
21979 154606
21979 39882
21979 253783
21979 287621
21979 445525
21979 186637
284127 66111
21987 108666
22004 431863
22004 179705
22004 84766
22004 442282
22004 25068
22004 25077
22004 417656
22004 297451
22004 310053
22004 355642
22004 406423
22004 447469
22004 414359
22053 189512
22053 218384
22053 94452
22053 234597
22053 178161
22053 291829
22053 362527
284203 97184
284203 284204
284204 97184
22061 22067
22067 46978
22067 60379
284210 34719
284214 117737
22072 85259
22084 432710
22084 355112
22084 291619
22084 134159
22084 389236
22084 399199
22084 197820
22084 439295
22084 119029
22084 375550
22084 27033
22084 228637
22084 431315
22084 442735
22084 50171
22084 84644
22084 351111
22084 307356
22084 80544
22084 324956
22084 343903
284239 44469
284248 224850
284253 49171
22133 171704
22151 22304
284305 284306
22176 258785
22170 407966
22170 231625
22185 53511
22185 30417
22185 31157
22185 25902
22185 73641
22185 133581
22185 71432
22185 25990
22185 61968
284358 178870
22215 43515
22216 130397
284364 41798
284364 32226
284377 49178
22236 246214
22236 91869
22236 123076
22236 122915
22236 44202
22236 191554
22236 246216
22236 433549
22236 112121
22236 80115
22236 88507
22236 82791
22236 427396
22236 109975
22236 411513
22240 23956
22240 193396
22240 51174
22240 104567
284385 294416
284395 101738
284398 128458
22262 132493
284423 54892
22280 393276
22279 318866
22288 84644
22292 247364
22304 28978
22304 149180
22307 49940
22307 138930
22312 133973
22313 250519
22313 134412
22313 327478
22313 402546
22313 338987
284460 342433
22327 162061
22328 132400
22333 257362
22351 190634
22355 348145
22355 130723
22355 197715
22355 70296
22355 249920
22355 449849
22355 77684
22355 62480
22355 88879
22355 427626
22355 301724
22355 112754
22355 98811
22355 45006
22355 72391
22355 160651
22355 72733
22355 295321
22355 233224
22355 160991
22355 375100
22355 136111
22355 214501
22355 103908
22355 170745
22358 49638
284507 68278
22366 115649
284517 217925
22382 33998
22382 50733
284527 36371
284545 68278
22408 141739
22408 31341
22408 217821
22408 26938
22408 58273
22408 113592
284587 294416
284597 203104
22455 154285
22455 141725
284601 72194
22459 161144
284605 68278
22470 37980
22470 84083
22470 81586
22470 109908
22470 40990
22470 37185
22470 43121
22470 84232
22470 42916
22470 67161
22470 67504
22470 50733
22474 63120
284624 102366
284631 213171
22495 139737
284651 33476
22510 113496
22510 120701
22510 29613
22510 81150
22512 56479
22512 158315
22517 176036
22547 122330
22547 303942
22547 286491
22547 325445
22547 312633
22547 383355
284697 37341
22555 110903
22555 31986
284709 129434
22573 221402
284724 153717
22582 303371
284747 395278
284758 395251
22624 123271
22624 436738
22624 28749
22627 66676
22627 29917
22627 100628
22627 46176
22627 29896
22627 46633
22627 441067
22627 61628
22627 23523
22627 141938
22627 183110
22627 200998
22629 325936
22629 88515
22629 231739
22629 157176
22636 337690
22636 125814
22636 344961
22636 187427
22636 354942
22636 379226
22636 60641
22636 309967
22636 383145
22636 243439
22636 379090
22636 116660
22636 418361
22634 376922
22634 141168
22634 57518
22634 143472
22634 185399
22634 86394
22634 389351
22634 207132
22634 352542
22634 157725
22634 171281
22634 131538
22634 323343
22634 86384
22634 164016
22634 196855
22641 104700
22641 317834
22643 69975
22643 131538
22643 184604
284794 67032
22651 63931
22656 79253
22660 42182
22660 50901
22664 68885
22665 45133
284814 55179
22693 360612
284845 31549
284851 40279
22725 34794
22727 63931
22729 37331
22729 28304
284882 23129
22750 105538
22750 105352
22758 47748
284906 34808
22765 38599
22766 368281
22769 22857
22773 88396
284930 123135
22788 159268
22788 103361
22788 296386
284938 57510
284940 34312
22796 170955
22804 98101
22804 106089
22806 91549
22806 358405
22806 235657
22806 154883
22806 38595
22806 170943
22806 76392
22806 98101
22806 61211
22806 97283
22806 128799
284958 69237
22816 22823
22816 297744
22816 339353
22816 150239
22816 131668
22816 116694
22816 221563
22816 117340
22816 332441
22816 22857
22816 103359
22817 68450
22817 22823
22823 40200
22823 106608
22823 161091
22823 438113
22823 174387
22823 448472
22823 221563
22823 394312
22823 367597
22823 72277
22823 422248
22823 209895
22823 189984
22823 214203
22823 88788
22823 22829
22823 87601
22823 202146
22823 399673
22823 65476
22823 128704
22823 150239
284968 104281
22829 74014
22833 68459
22841 37331
284986 38695
22849 177002
22849 435026
22849 69891
22849 454518
22849 95871
22849 39959
22849 165572
22849 74047
22883 155430
22897 149965
285041 37545
22916 89197
285062 380967
22926 28347
22926 108134
22926 69080
22926 169400
22926 216023
22926 77132
22947 40642
22949 146975
22957 113099
285105 50299
22964 38260
22965 78323
285118 44135
22979 23135
22991 120096
22991 298792
22991 453203
22991 143906
22991 261618
22991 103441
22991 163825
22991 26205
22991 397156
22991 414886
22991 171150
22999 40926
23003 114203
23014 207972
23019 42673
23019 86109
23019 26770
23019 66935
23019 32109
23019 90752
23019 228785
23028 94942
285177 189233
285181 26195
285189 95905
23071 62505
23071 181213
285248 31450
285252 456315
285252 59327
285252 174692
23114 345479
285260 261753
23123 247982
23123 347453
23123 380846
23123 101048
23123 235833
23123 366212
23123 38505
23123 88282
23123 387574
285275 41968
285276 34809
23132 365425
23129 307383
23129 166629
23129 66917
23129 257098
23139 375701
285285 302769
23144 33374
285290 160507
285301 31510
23173 27738
285323 171163
285326 294416
285328 294416
23201 35925
23204 34324
23204 62505
23205 239022
23205 45137
23205 45337
23205 34555
23228 34236
23229 313273
285381 91963
23254 30391
23257 66340
23257 102645
23259 99369
23271 76050
23278 164383
23278 32226
23278 335096
23280 100292
285432 43597
23293 64170
285439 52972
23312 105048
285458 32333
23315 66114
23323 89035
23325 105360
23355 46117
285523 62542
285528 99369
23385 173993
23385 165572
23399 173606
23399 343183
23399 208867
23399 43303
23399 162863
23399 95743
285554 36370
23422 43796
23422 103416
23430 27311
285593 122099
23451 335475
23451 386051
23451 291385
23451 345886
23451 105322
23451 291842
23451 291339
23451 436962
23451 289048
285600 178192
23462 91160
285608 24750
23477 60315
23477 204716
23477 62675
23477 91160
23477 223875
285622 129960
285629 67572
285629 54200
285635 73979
285638 309518
23498 46117
23498 41672
23498 429956
23498 432835
23498 117828
285652 30578
23512 59262
23515 41495
23517 118741
23517 355758
23517 365042
23517 233585
23517 97844
23517 91513
23517 288646
285669 58603
285669 452216
285678 57105
23534 71141
285693 294416
23584 86774
23609 177431
23630 98645
23642 37909
23642 112514
23642 23665
23642 187022
23642 142684
23665 112514
23665 60835
23665 142741
285815 59542
285819 55471
23680 303221
23680 343344
23680 292506
23680 149463
23680 349452
23680 79954
23680 288679
23680 47762
23680 350167
23680 349263
23680 36026
23680 301599
23680 415695
23680 349866
23680 67215
23680 306822
23680 338773
23680 420785
23680 338054
23680 380175
23680 304604
23680 444150
23680 221563
23680 438287
23680 238315
23680 68394
23680 29173
23680 159800
23680 163117
23680 168967
23680 176758
23680 447160
23680 160431
23680 54453
23680 352789
23680 51511
23680 409945
23680 48140
23680 36034
23680 48150
23680 318706
23680 290430
23680 452341
23680 145468
23680 250419
23680 68434
23680 386103
23680 448923
23677 56500
285838 68278
285849 440649
285856 79649
23716 33322
23716 66429
23716 128906
23716 228614
23716 370244
23716 387962
23716 326376
23716 430445
23720 119006
23725 74662
23729 428383
23729 154794
23729 228731
23738 439173
23738 436691
23743 312390
23743 50738
23743 38366
23743 34023
23743 34074
23743 172394
23743 422717
23751 24084
23751 316008
23751 23763
23751 240009
23751 343978
23752 87354
23752 351901
23752 82019
23752 96533
23752 146969
23752 361146
23752 34096
23761 184080
23761 43177
23761 362573
23761 32669
23761 95390
23761 392755
23761 377692
23761 339052
23761 199365
285908 125439
285908 315386
285908 81429
23764 305337
23764 430445
23767 379955
23767 431206
285913 228311
23771 27624
285929 101738
23798 69891
23798 322676
23798 88515
23798 160136
23801 96969
23801 24100
285949 68278
23812 358883
23815 27738
23819 99451
23819 241490
23824 86888
23824 39593
285973 285974
285973 51731
285996 53018
23854 29814
23854 23882
23854 75475
23854 443293
23866 451909
23866 444491
23866 454583
23866 79332
23866 119015
23866 355502
23866 357563
23866 442735
23866 119023
23866 228637
23866 408898
23866 398179
23866 172393
23866 314986
23866 221410
23866 138370
23866 167715
23866 254195
23866 448111
23881 191049
286030 250519
286034 58028
23912 52793
286069 95917
286069 95921
23930 43373
23931 43397
23940 126464
23940 45137
23946 47477
23946 217652
23950 162003
23951 85813
286094 250519
23956 234989
23956 108075
23956 134056
23956 104449
23956 81405
23956 291495
23956 128535
23956 227017
23956 377969
23956 156767
23956 141022
23962 154370
23962 44613
23962 139172
23963 161907
23968 198790
23968 427820
23969 88055
23971 59674
286116 221000
23993 42210
286148 47490
286148 203855
286167 141604
286171 33476
24029 57105
24030 179195
286173 161672
24033 37523
24033 108227
286178 75721
24040 27035
24040 149946
24043 24089
286196 37341
24053 158412
24059 34080
24062 244638
24062 319795
24062 425899
24062 146554
286221 54200
24084 382802
24084 79832
24084 217699
24084 152949
24084 40677
24084 315749
24084 429951
24084 118993
24084 122239
24084 27079
24087 75443
24088 197157
24088 128906
24088 107376
24105 63095
24108 54550
286255 43905
24121 52161
24121 38300
286276 33313
24135 53384
286284 294416
24158 349854
24158 156017
24166 337875
24182 103447
24197 191321
24197 108698
24197 167021
24197 195825
24197 440269
24202 45009
24215 35619
24217 36959
24233 68956
24235 217996
24235 37627
286383 208787
286383 30298
24243 99369
286387 155264
24251 133391
24251 202903
24251 167898
24251 91204
24251 328033
24251 395809
24251 76934
24251 129814
24251 173889
286406 225906
286415 77670
24275 69614
24286 144270
24286 174408
24286 108454
24288 133746
286435 31251
24292 30192
24302 170472
286452 188032
286452 104479
286464 72947
286464 59158
286464 87325
24326 81586
24335 107548
24335 442144
24335 130895
24335 173411
24335 214057
24335 72458
24335 178661
24361 135394
24361 49381
24361 29876
286508 294416
286544 32226
24413 146166
24413 202500
24413 153011
24413 206688
24413 125955
24413 191104
24413 97485
286559 34719
286563 286565
286563 216056
286565 216056
286565 367217
286570 141612
286570 451159
286570 392042
286570 300963
24440 62542
286586 294416
24445 56153
24445 415588
24458 91426
24460 181400
24468 161493
286613 132585
286613 386737
286613 124372
24474 233197
286620 205983
24486 236941
286640 68278
286648 37523
24507 91010
24531 124553
286684 214987
286698 294192
24567 198325
24571 36354
24575 85759
286724 297996
24584 26451
24586 46313
286737 331174
286739 230370
286752 68278
24610 178175
24614 408026
24614 168920
24614 57003
24619 34399
286764 37523
286779 25094
24636 170623
286787 30231
24653 148954
24653 129809
24653 26289
286797 68278
24659 43577
24659 169322
24674 200263
24676 256491
24676 228371
24676 450348
24676 147373
24676 442324
24676 445050
24676 259102
24676 448828
24681 30319
24681 376293
24681 46118
286830 65141
24691 207527
24691 67149
24693 40366
286842 50276
24703 59387
24703 140554
24703 56035
24703 199971
24703 145635
24703 61680
24703 201657
24703 61683
24703 347492
286856 297011
286868 112602
24732 33568
24735 446500
24735 440698
286880 115042
24740 417610
24742 216255
24742 115879
24742 433999
24742 428960
24750 155173
24750 241353
24750 407402
24750 154369
24750 177392
24750 151691
24750 431202
24750 216589
24750 356452
24750 200756
24750 348135
24755 221626
24755 130099
24755 396546
24755 111473
24755 217199
24755 218736
286900 37341
286903 286904
286905 52920
286922 333604
286926 103057
286931 68278
286936 27215
24800 193649
24800 322748
24820 64722
24821 98762
286976 28476
24839 24845
24857 46508
24871 138562
24871 69806
24871 24875
24873 90228
24873 225481
24873 410243
24873 130692
24873 141126
24873 140379
24873 182346
24873 234046
24874 232530
24874 228159
24874 387434
24874 190020
24874 379590
24879 68965
24898 205718
24898 67401
24898 81189
24898 228833
24898 104840
287042 60695
287046 90145
24906 99329
24906 176933
24906 40536
287054 244692
24911 298480
24911 125257
24911 159720
24911 122144
24911 138246
24911 196359
287076 88999
24954 25943
24954 98217
24960 168562
24960 71805
24969 24971
287121 110903
24984 189969
24991 42177
287142 73476
287147 248580
25007 224525
25007 417262
25007 315184
25007 366578
25007 337834
25007 194161
25007 250080
25007 123508
25007 183158
25007 294105
25007 320209
25007 71722
25007 455045
25007 242064
25007 68782
25007 388116
25007 415037
25007 452905
25007 422186
25007 418790
25007 218446
25014 297600
287164 49685
25020 41415
25020 28107
25020 225392
25030 117462
287175 135397
287195 122449
287195 68278
25063 70410
25063 226826
25063 198910
25063 35950
25063 80916
25063 41729
25063 112805
25068 27052
25068 430445
25068 99836
25068 151237
25068 250689
25068 236847
25068 222740
25068 138640
25068 193182
25079 94655
287227 95905
25091 33833
25091 87038
25094 452830
25094 405620
25094 379849
25094 231522
25094 343419
25094 53459
25094 399463
25094 361932
25094 220557
25094 33813
25094 31993
25094 190296
25094 314848
25094 171410
25094 370290
25094 420343
25094 330852
25094 250621
287242 432418
25099 96072
287251 101333
287258 71141
287266 184726
287268 74195
25125 28951
25127 28985
25142 27738
287291 289597
287319 57105
287323 59002
25180 116966
25180 37384
25194 69969
25195 201932
25199 178353
25202 91777
25209 91399
287369 287370
287370 89495
287383 200271
25248 39645
25248 134926
287396 137564
287407 234713
287410 313342
287417 251823
25275 108134
287420 68278
25279 176511
25280 28973
25280 92793
25280 40909
25280 443694
25280 90361
25301 25339
25310 350417
25310 395049
25310 33150
25310 115747
25310 25335
287470 27748
287472 26289
25335 42182
25335 26289
25335 25351
25339 27738
25339 142286
25339 212983
25339 212984
25339 172612
25339 134233
25357 42182
25360 33150
287510 234720
25381 140526
287532 53763
25444 99369
287609 171466
287610 349764
287616 58744
287616 34963
25482 33569
287633 172318
287642 28586
287649 68278
25538 113608
287704 65097
287715 41131
25574 39889
25575 297390
25580 28176
25580 340987
25585 165432
287740 287743
25608 255472
287754 37947
25629 190593
25629 155151
25629 394396
25629 298642
287779 37523
287789 198048
287793 34719
25650 34719
25653 331540
25653 28585
25652 225937
287810 30578
25676 238490
287827 345693
287827 362852
25707 122042
25710 41063
25754 41540
287899 143752
25755 85663
25761 158969
25763 330384
25767 77345
25781 41589
25798 45391
25798 162787
287951 334658
25811 413909
287965 287967
25834 28586
287979 101754
25850 44795
25883 52379
25890 426265
25890 32423
25895 83984
25899 132582
25905 231068
25905 92188
25905 94464
25905 33569
25905 153977
25905 143277
25905 153592
25905 251134
25905 194309
25905 456278
25905 169704
25905 53578
25918 38632
288087 59893
25955 132585
25959 188961
25959 186978
25963 160228
288115 27738
25978 215213
25978 35845
288127 68278
288132 53504
288132 57105
288132 26195
288137 67032
26004 84840
26004 348869
26004 157381
26004 163807
288152 68278
26010 51127
26022 172972
26031 29993
26031 54242
26040 130162
26040 119646
26040 411573
288196 174819
26054 379028
26062 46328
26062 308767
26073 201133
26073 79758
26073 54655
26073 343829
26073 216678
26073 209662
288227 294416
288231 294416
26086 92693
288232 294416
288234 294416
288240 336395
26097 95476
288252 44027
288271 128854
26130 222886
26136 215681
26136 419602
26136 197101
26136 233198
26136 414578
26136 259849
26136 388866
26136 220705
26136 98328
26136 108134
26136 163825
26136 419424
26136 215055
26136 329401
26136 128795
26136 111330
26136 145845
26136 111325
26137 290671
26138 211877
26138 33840
288283 314873
288283 34312
288289 62215
288291 59002
26162 75893
26164 193000
26169 346484
26180 396614
26189 60606
26192 27732
26195 314180
26195 84353
26195 303365
26195 322530
26195 397915
26195 92100
26195 393757
26195 343398
26195 451655
26195 343750
26195 296829
26195 195074
26195 99034
26195 45434
26195 28176
26195 362531
26195 322212
26195 197859
26195 254031
26195 87862
26195 186207
26195 114792
26195 33904
26195 92363
26195 95230
26195 255698
26195 65171
26195 254251
26195 76881
26195 211572
26195 161791
26195 219481
26195 44945
26195 214785
26195 102362
26195 119876
26196 33719
26198 60161
288346 30578
26209 229928
26223 68269
26233 170488
26233 432836
26241 170278
288387 37341
26244 79168
26244 112694
288398 52469
288398 31446
26258 30324
26259 198048
288406 35365
288420 113315
26276 197396
26289 152114
288447 97776
26304 34535
26307 223691
26307 200726
26307 223704
26307 223696
26307 144597
26307 182320
26307 206697
26307 223698
26307 439839
26307 92848
26307 428826
26307 161403
26307 151897
26307 223693
26307 157794
26307 101992
26307 223701
26307 151892
26307 154936
26307 334694
26307 157802
26307 223690
26307 215354
26307 223705
288451 87364
26315 67501
26319 47997
26350 55640
288501 174519
288502 174519
26367 390359
26367 109897
26373 107829
26377 142013
26378 355357
26386 88804
26397 82084
26397 250489
26408 28390
288553 69414
26427 243547
26428 40164
26449 134752
26454 81583
26454 79253
26454 243308
26455 67158
288601 184008
288618 198048
288623 199221
288651 310759
26508 303213
288662 34283
26525 32532
26540 353354
26540 393883
26540 33056
26540 306031
26540 292029
26540 41104
26540 232385
26540 43775
26540 50653
26540 190020
26540 206565
26540 54089
26540 228329
26540 145932
26540 370196
26540 41067
26540 79560
26540 45900
26540 250484
26544 34524
26544 173956
26551 376799
26551 44552
26551 443457
26551 358708
26551 106473
26571 309850
26571 88175
26571 129704
26571 107055
26584 369841
26584 121222
26589 129225
26612 374447
26616 86973
26638 319280
26640 87965
288791 243289
288795 198048
288801 312093
26660 301921
26660 48737
26660 233717
26675 188780
26675 120431
26675 66089
26675 113358
26675 330497
26677 26684
26677 361713
26677 216258
26677 57022
26677 111599
26677 353131
26677 68743
26677 204269
26677 448545
26677 305859
26677 351925
26677 238737
26677 342407
26677 319895
26677 245992
26677 188800
26677 64906
26679 26694
26687 240872
26687 100651
26687 159027
26687 352072
26687 159898
26687 188048
26687 177931
26687 211442
26687 360347
26687 179813
288838 28476
288838 48070
288838 55965
26694 188067
26694 293184
26694 66089
26694 115157
26694 101339
26694 107482
288841 57105
288847 46617
26706 207623
26716 42999
288860 288861
26720 61944
26732 364334
26732 107801
26735 96294
26744 115331
26753 369554
26753 97462
26753 342515
26753 307389
26753 306579
26753 293790
26753 394154
26753 359711
26753 337748
26753 425423
26753 113459
26753 210922
26753 348978
26753 193756
288958 123661
288958 47133
288958 184845
288958 48267
288958 42395
288958 361836
288958 103416
288958 196413
288958 204489
288958 404112
288958 154685
288958 230149
288958 327259
288958 32659
288958 317405
288958 397027
288958 122677
288958 78093
288958 221260
288958 296639
288958 48223
288958 152714
288958 44635
288958 36996
288958 217317
288958 71407
288958 185998
288958 422420
288958 45490
288958 397170
288958 95245
288958 43303
288966 46669
26830 48039
26838 158115
26848 121248
26848 141075
288997 317834
288997 247168
288998 250239
26857 76570
26860 249454
26863 168200
26866 77946
289020 174267
289034 240414
289037 51634
289037 165233
26902 186246
26906 26995
26921 233933
26938 208312
289090 109379
26948 99369
289093 44648
289118 33831
27004 91348
27004 46581
27004 359823
27004 69132
27004 147913
27004 333700
27004 319304
27004 440741
27004 323239
27004 388437
27004 449508
27004 234499
27004 35322
289152 313841
289152 289554
289152 346003
27022 56162
27022 101214
289173 289174
27029 454984
27029 361750
27029 78118
27033 245136
27033 43723
27044 47576
27066 375775
27070 409834
27084 127551
27092 53920
289238 86973
27120 103136
27120 98003
27120 295168
27120 99893
27120 377926
289267 183133
289269 177397
289277 68278
289278 89016
27143 134280
289293 60512
27159 69808
27182 58560
27185 393833
27185 391246
27185 348559
27185 342111
27185 313626
27185 398385
27194 114043
27215 105491
27224 70973
27231 111218
289379 59945
289388 69637
27247 42287
27259 176707
27259 94160
27259 438858
27261 138438
289417 294416
289438 68278
27295 158607
27295 92444
289446 161672
289446 40328
27311 434045
27316 429956
289462 68278
289485 147178
289510 434878
289510 219598
27380 215190
289524 58210
27398 387422
289544 34312
289555 307844
27423 217366
27423 41346
27426 145745
27439 254214
27439 55129
27439 215206
27439 290137
27439 244821
27439 221649
27439 331101
27439 218102
27439 360567
27439 94826
289597 36368
27457 341151
27457 156233
27457 293177
27457 157184
27457 390650
27460 54089
27480 220091
27483 114187
27483 418602
27483 66262
27483 103447
27483 51886
27483 51181
27483 167376
27483 189651
27483 80101
27483 107693
27483 53366
27483 163504
27483 47868
27483 42947
27483 73449
27483 154332
27483 92775
27483 149463
27483 49086
27483 130703
27483 31875
27483 80881
27483 115005
27489 41541
27488 101551
27494 79301
27502 115562
289650 250519
27508 65768
289673 52469
27551 355288
289704 289705
27571 32226
289725 81490
27582 33029
289727 71743
289736 123319
27591 218511
289739 74014
289739 214203
27617 199084
27635 96920
27635 406444
27635 75684
27635 96533
27635 347137
27635 431204
27635 427342
27635 86825
27635 84979
27635 246562
27635 298797
27635 329289
27635 358030
27635 314961
27635 337740
27635 344513
27635 379036
27635 407599
27635 257024
27635 253091
27635 169084
27635 79354
27635 319924
27635 241820
27635 249355
27635 321201
27635 431624
289785 253503
289785 322765
289785 157359
27646 115275
27664 33498
27672 119281
27676 186091
27676 63931
289835 51704
289840 27744
289846 69754
27701 55122
27712 94226
27712 87038
27712 174734
27712 186412
27712 97354
27712 317619
27712 340519
27712 215787
27712 206534
27712 76876
27712 136584
27717 37550
289863 197478
27722 58710
27732 106758
27738 257333
27738 125272
27738 350634
27738 193262
27738 57496
27738 171984
27738 45590
27738 307757
27738 78403
27738 196264
27738 299086
27738 428104
27738 74507
27738 47824
27738 420808
27738 133223
27738 194114
27738 120661
27738 253873
27738 255416
27738 143908
27738 406770
27738 232464
27738 76804
27738 374078
27738 141439
27738 199798
27738 346389
27738 80926
27738 116164
27738 376922
27738 46245
27738 306031
27738 205358
27738 235284
27738 54359
27738 142642
27738 142822
27738 212988
27738 416193
27738 219700
27738 395857
27738 65190
27738 300689
27738 319222
27738 123661
27738 246509
27738 35730
27738 86930
27738 57236
27738 32079
27738 57147
27738 101789
27738 322462
27738 303348
27738 34492
27738 109186
27738 54089
27738 182503
27738 172229
27738 66279
27738 169694
27738 124522
27738 140809
27738 207143
27738 116337
27738 181229
27738 410251
27738 179799
27738 121801
27738 178124
27738 197666
27738 84172
27738 128364
27738 160952
27738 30275
27738 138674
27738 166892
27738 448333
27738 197743
27738 403374
27738 83594
27738 307047
27738 154838
27738 102301
27738 73683
27738 83436
27738 318780
27738 218581
27738 31083
27738 221019
27738 46974
27738 192816
27738 120267
27738 336235
27738 56654
27738 78983
27738 112489
27738 444871
27738 99033
27738 105939
27738 232072
27738 239940
27738 31098
27738 40582
27738 145341
27738 323987
27738 356343
27738 215687
27738 241407
27738 384356
27738 56875
27738 253576
27738 100203
27738 361542
27738 210707
27738 111475
27738 115820
27738 365637
27738 233271
27738 46213
27738 67501
27738 135684
27738 368178
27738 385551
27738 259763
27738 107028
27738 201413
27738 334866
27738 97519
27738 78960
27738 325494
27738 143133
27738 156304
27738 351663
27738 29820
27738 35143
27738 380885
27738 59138
27738 150943
27738 377174
27738 100002
27738 210575
27738 34205
27738 100067
27738 338673
27738 87544
27738 385087
27738 51319
27738 45454
27738 158163
27738 342618
27738 149749
27738 138233
27738 207808
27738 54788
27738 310718
27738 196637
27741 334930
289885 68278
289885 261987
289885 110715
27744 249965
27744 409549
27744 315765
27744 410740
27744 390577
27744 191658
27744 378289
27744 325965
27744 101795
27744 412144
27744 71815
27744 431917
27744 405462
27744 256237
27744 380667
27744 365594
27744 436113
27744 191665
27744 356266
27744 404871
27744 413624
27744 400885
27744 390372
27744 328631
27744 435063
27744 322953
27744 327407
27744 209772
27744 365509
27744 438745
27744 191928
27744 436331
27744 408484
27744 385012
27744 425824
27744 357235
27744 387267
27744 373655
27744 340289
27744 190036
27744 235149
27744 294478
27744 193414
27744 452178
27744 356312
27744 118052
27744 111286
27744 323174
27744 441321
27744 377267
27744 105236
27744 109878
27744 141845
27744 428353
27744 72495
27744 394651
27744 358195
27744 101981
27744 128687
27744 40320
27744 398768
27744 361047
27744 453031
27744 429910
27744 242056
27744 384537
27744 396461
27744 332777
27744 330520
27744 453567
27744 424614
27744 125668
289889 95905
289889 122469
289890 68278
27748 49179
27748 57105
27748 57521
27768 96890
27768 96892
27768 46108
27777 50910
289926 31534
289933 95905
27792 117769
27806 55715
27810 357542
27811 126464
27817 77024
27820 376456
27827 64301
289976 31510
27833 61391
27848 154645
289993 116239
289995 99309
27856 350201
27856 146232
27856 180496
27856 296377
27856 42654
27856 149348
27860 245999
27862 194517
290007 118455
290007 233776
27864 290432
27864 120947
27864 107947
27864 148060
27864 80499
27869 385791
27869 137825
27869 133438
27869 207146
27869 357032
27869 319730
27869 454085
27869 357947
27869 233404
27869 196395
27869 127289
27869 180496
27869 160541
27873 174751
27877 90641
27883 100299
27885 99927
27886 70868
290032 60695
27888 119507
27897 393124
27907 191790
290070 230618
27935 159475
27952 185581
290103 39147
290104 65141
290111 82322
27967 49433
27970 52926
27971 64625
27982 353522
27982 228608
27982 161212
27982 226962
27982 52041
27983 46117
27990 34315
28035 207708
290182 294416
28055 65956
28061 69237
290206 68278
28063 301900
28063 65326
28063 210917
28063 123364
28063 314431
28063 72094
28063 210922
28067 60026
28067 60066
28067 60062
28067 60034
28067 239296
28067 339506
28079 35053
28079 368876
28080 30218
28080 64994
28090 100322
28089 304642
28091 110467
28091 181070
28091 233807
28091 140734
28091 61890
28091 121389
28091 359455
28091 53014
28091 35274
28091 351360
28091 31809
28091 110477
28091 341033
28091 119664
28091 57236
28091 157179
28091 170210
290248 116924
290250 67282
290251 58712
290252 112815
28111 340416
28111 40261
28111 65300
28115 439115
28115 387585
28115 327224
28115 31317
28115 34922
290273 294416
290281 294416
28152 182792
28156 57105
28157 52335
28161 90041
28161 111189
28166 99145
28166 31678
28166 294546
28166 347143
28171 35365
28174 333919
28174 122684
28174 413356
28174 181451
28174 238590
28174 354674
28176 28462
28176 325672
290328 51757
290332 240842
28209 151666
290358 87429
290365 57105
290367 235473
28236 96882
28236 136024
290394 146627
28252 34431
28253 114157
28253 143581
28253 80944
28261 122596
28261 237011
28261 111870
290409 68278
28294 50901
28295 348724
28310 440821
28322 79423
28331 53672
290475 172918
28333 118591
290474 52469
28339 50901
290521 98762
28390 171672
28393 51727
28393 123564
290538 35366
290538 34963
290538 40282
28392 113311
28408 119137
28416 340786
28416 117318
290579 95905
290583 177802
290584 68278
290588 224775
28462 335870
28462 372166
28462 424729
28462 396961
28462 219769
28462 100504
28462 37075
28462 227272
28462 394732
28462 119949
28462 126279
28462 349448
28462 225916
28462 214506
28462 421852
28462 127584
28462 435707
28462 149586
28462 347749
28462 395506
28462 405962
28462 412774
28462 382728
28462 166289
28462 394003
28462 297922
28462 301963
28462 383175
28462 182230
28462 301522
28462 182638
28462 443206
28462 117470
28462 109833
28462 214281
28462 57183
28462 366132
28473 446054
28473 200296
28475 31068
28475 403154
28476 327516
28476 328819
28476 405765
28476 157696
28476 415913
28476 379990
28476 360942
28476 186758
28476 358760
28476 109345
28476 101188
28476 96659
28476 294711
28476 112325
28476 178445
28476 329425
28476 414592
28476 146062
28476 123312
28476 248017
28476 58185
28476 388491
28476 424175
28476 431476
28476 236214
28476 63681
28476 171325
28476 53380
28476 125760
28476 353369
28476 366879
28476 314607
28476 116474
28476 354981
28476 346112
28476 350145
28476 347457
28476 221945
28476 358702
28476 241593
28476 130380
28476 190383
28476 376078
28476 197172
28476 72811
28476 128440
28476 211725
28476 328040
28476 424176
28476 50060
28476 448639
28476 391923
28478 251447
290629 55471
28488 38109
28488 126840
28489 31966
290632 65141
290643 50299
290670 294416
28530 57469
290675 67681
28542 254691
28542 55286
28550 54550
28559 240450
28559 60469
290710 51757
290717 250519
290725 67580
28585 208875
28585 39874
28586 158838
28586 328185
28586 439628
28586 293170
28586 380444
28586 231256
28586 436013
28586 78565
28586 443867
28586 302218
28586 145480
28586 344686
28586 388000
28586 397546
28586 312147
28586 28648
28586 328876
28586 249448
28586 375915
28586 443814
28586 306629
28586 361523
28586 334501
28586 184426
28586 448498
28586 351329
28586 453121
28586 388914
28586 218771
28586 143136
28586 171419
28586 439388
28586 153423
28586 396853
28586 118087
28586 361486
28586 394764
28586 455534
28586 386515
28586 294656
28586 293227
28586 343383
28586 404591
28586 446347
28586 248686
28586 101012
28586 297988
28586 226645
290762 50733
28624 59870
28624 235342
28624 190356
28624 46420
290770 89784
28628 40818
28632 160770
28634 78458
28637 50647
28641 203736
28641 249548
28641 28644
290788 116592
290789 170865
28651 54081
28656 41086
28657 342903
28658 171275
28667 343383
28673 99369
28681 28689
28681 28721
28688 93051
28691 29264
28693 50679
28694 99369
290840 302214
290845 32972
28707 197561
28707 376002
28707 171526
28707 334494
28707 141776
28707 160775
28707 142300
28707 75784
28707 43197
28707 152272
28707 129120
28708 111531
28708 112693
28715 39874
28715 29264
28715 42373
290864 128559
28720 50679
28720 78034
28725 147352
28725 212254
28725 33199
28725 94791
28725 52007
28727 186023
290880 202644
28739 204730
28739 130293
290891 36247
290911 33476
290935 57105
28799 179104
290954 101738
28812 94716
28820 183902
28820 230234
290969 83105
28827 62542
28831 112161
28835 115382
28838 177812
290997 248566
291000 68278
28862 50590
291020 103747
28889 72145
291057 325131
28913 160191
28913 384868
28913 91471
28913 91464
28913 193321
28913 136800
28921 38636
291066 68278
291070 68278
28926 44652
28940 36847
28952 126795
28951 202252
28951 98992
28951 135337
28951 103447
28951 121414
28951 216056
28951 143674
28951 378195
28951 52308
28951 52302
28951 101238
28951 46265
28951 39853
28951 88716
28951 378176
28973 94228
28978 193337
28985 150457
28985 405336
28985 176194
28985 97815
28985 78867
28986 76386
28986 191524
28986 226065
28991 87373
291148 166096
291155 79052
291155 123135
291170 75797
291172 67792
29033 107808
29033 152486
29057 296446
29057 207750
29057 346537
29057 329015
29057 257409
29057 128844
29057 128846
29057 154035
29057 124874
29058 62542
29064 199250
29064 178488
29064 189809
29065 238727
29065 57541
29065 177812
29065 380212
29065 322765
291228 51757
29086 381190
29083 64983
291235 68308
291235 69237
291235 76165
29101 53575
29117 416934
291275 151243
29136 148800
29143 50238
29143 43440
29144 259849
29144 437369
29144 88716
29146 251486
29162 248885
291306 68278
29165 48138
29167 208700
29173 196443
29173 416148
29175 185545
29175 373196
29175 251371
291322 71596
29180 340719
29180 141309
29199 44435
291353 198048
29213 166135
29219 428284
29225 361165
29225 380191
29225 385779
29225 181019
29225 379071
29225 103611
29225 377212
29225 192566
29225 349734
29225 300677
29225 165741
29225 383898
29225 379869
29225 362105
29225 324883
29225 386121
29225 292743
29225 384074
29225 300426
29225 238616
29225 337110
29225 390372
29225 259589
29225 116121
29225 360846
29225 317705
29225 367971
29225 373265
29225 298098
29225 401529
29225 252831
29225 189375
29225 341358
29225 331831
29225 394683
29225 323351
29226 50901
29226 32290
29226 402654
29226 56356
29226 54755
29226 32269
29226 80679
29226 154910
29226 95597
29226 35841
29230 242954
29230 167332
29230 261648
29230 336465
29230 114715
29230 203785
29230 56381
29230 30999
29230 323248
29230 405920
29230 125151
29230 365644
29230 77562
29230 122318
29230 30990
29230 148431
29234 49521
29234 63931
29237 253952
29237 208845
29237 81672
291388 36371
29246 215166
29251 71800
29252 81405
29252 401447
29252 213868
29259 203697
29259 160725
29259 46515
29259 51644
29259 456105
29259 199626
29259 109479
29259 417181
29259 353354
29264 79262
29264 89873
29264 109479
29264 41067
29264 86415
29264 386868
29264 379070
29264 133693
29264 125789
29270 29312
29270 91269
29285 169730
29305 189950
291452 291454
29316 125674
29316 134439
29316 223875
29320 93051
29321 126875
29321 174861
291467 74014
291482 294416
291486 122488
29345 219861
291495 237549
291495 47388
29353 50901
29353 36645
29360 205679
291509 309523
291510 39515
291513 68278
291523 158111
29395 58344
291553 305154
29411 52573
291556 42012
29438 153268
291593 52857
291598 40279
29457 131827
29461 212801
29461 237883
29461 298683
29461 150847
29461 342667
29461 417145
29461 238832
29461 110091
29461 161732
29461 450483
291606 62575
291613 72353
29467 100088
291629 52474
29493 107803
291655 96234
291664 296518
29522 85470
29528 216246
291680 34963
29552 62934
291710 220342
291736 154462
29596 118734
29600 251422
29600 29701
29600 179142
29600 29708
29600 445257
29600 245808
29607 47544
29611 213545
29618 115382
29625 114890
29625 86675
29625 250172
29627 180401
29629 216497
29655 383682
29655 451291
29655 243605
29681 86071
29697 29768
291856 115267
291858 31836
29715 110960
291880 245546
29748 42182
291894 236955
29750 142708
29750 142707
29765 307601
29765 36554
29765 41540
29766 123814
291928 187966
29788 52538
29806 140095
29819 67032
29820 42182
291972 37559
29829 97545
29836 129225
29839 318997
292007 36371
292007 161202
29868 173841
292028 56103
29890 32355
29890 42282
29891 29902
29893 29902
29897 41900
29897 117995
29897 54142
29897 363846
292046 43982
292048 94505
29906 105538
29906 411936
29906 61608
29906 178852
29906 61660
29906 61609
29906 152689
29906 61661
29911 148875
29944 292823
292091 37523
292115 408560
29993 344013
29993 223151
30019 115382
30030 30034
30030 190719
30030 329624
30042 139626
30042 118755
292198 30478
30055 244890
30060 217649
292204 34312
292205 122488
30066 41681
30069 32102
30069 41808
30069 185805
30069 49861
30069 94861
30078 54410
30078 30137
30101 48899
30153 51181
30153 48281
30153 202698
292314 34719
292315 310976
30179 339018
30179 380153
30179 412093
30179 305411
30179 367711
30179 229610
30179 391595
30179 252921
30179 444529
30179 436877
30182 140332
30193 138530
30200 128334
30206 169503
30207 155474
30207 36712
30211 103926
30218 65548
30218 92134
30218 39153
30218 348844
30218 100343
30218 161591
30218 34236
30218 64987
30218 345815
30218 332339
30218 157846
30218 386123
30218 159253
30218 69127
30218 159252
30220 57105
30223 367298
30223 412776
30223 344109
30228 175211
30228 225428
30228 154403
30228 44991
30228 368313
30228 50341
30228 45454
30228 153652
30228 139078
30228 69157
30230 157852
30230 329526
30230 298965
30230 418611
30230 82941
30230 140894
30230 209527
30230 213719
30230 102389
30230 342389
30230 398737
30230 346460
30230 404477
30230 425443
30230 341874
30230 309371
30230 355673
30230 144176
30230 313753
30230 399496
30230 373348
30230 436113
30230 146774
30230 382721
30230 170574
30230 378234
30230 101253
30230 102338
30230 151557
30230 62017
30230 307365
30230 389964
30230 336771
30230 116670
30230 56027
30230 396036
30230 297924
30230 53598
30230 455108
30230 123741
30230 156116
30230 308147
30230 352158
30230 436104
30230 66095
30230 40247
30230 354362
30230 102334
30230 406588
30230 305988
30230 394357
30230 371145
30230 106170
30230 404949
30230 327574
30230 391345
30230 358627
30230 311112
30230 348391
30230 363042
30230 390724
30230 396434
30230 243184
30230 209547
30230 406686
30230 391944
30230 407394
30230 382682
30230 397711
30230 65527
30230 394940
30230 337529
30230 402814
30230 320279
30230 435883
30230 330899
30230 328202
30230 343557
30230 378543
30230 116679
30230 153034
30230 353422
30230 326501
30230 77576
30230 404706
30230 345356
30230 383893
30230 167083
30230 340686
30230 415482
30230 309725
30230 390703
30230 246677
30230 377268
30230 344668
30230 432428
30230 366604
30230 375938
30230 328646
30230 257589
30230 355230
30230 62182
30230 224761
30230 442276
30230 323238
30230 132142
30230 340366
30230 438846
30230 250186
30230 320862
30230 182251
30230 435072
30230 188109
30230 295064
30230 402111
30230 87987
30230 432953
30230 326296
30230 353010
30230 322306
30230 362113
30230 380245
30230 311779
30230 338869
30230 339300
30230 399531
30230 346601
30230 322286
30230 336482
30230 339171
30230 145770
30230 447513
30230 360342
30230 404617
30230 182878
30230 353809
30230 310617
30230 373794
30230 403113
30230 186911
30230 391622
30230 307583
30230 75346
30230 448314
30230 111718
30230 324235
30230 376224
30230 232766
30230 251810
30230 428731
30230 381486
30230 91347
30230 347322
30230 343367
30230 311358
30230 118750
30230 102440
30230 348731
30230 372369
30231 92823
30231 34806
30231 402276
30231 247420
30231 243366
30232 159303
30232 130463
30239 42233
30241 187020
30242 233570
30242 117288
30243 130834
30243 369084
30243 258959
292393 32972
292400 34312
30259 82680
292403 58744
292408 139080
292412 33396
30269 50733
30278 178019
292437 115042
30298 392805
30298 399503
30298 64994
292450 50733
292450 99853
30322 174859
30324 228747
30324 212421
30324 388449
30324 250368
30324 78666
30324 53053
30324 33569
30324 383269
30324 195164
30324 217020
30324 203940
30324 375018
30324 329634
30324 51428
30324 99839
30324 153113
30324 110618
30324 234443
30324 336235
30324 211158
292498 116239
292498 209258
30372 39782
30373 77352
30379 137031
30381 45201
292546 128416
30403 30478
292561 99369
292567 244854
292569 292570
30440 58532
30440 60370
30440 52323
30440 349308
30453 81340
30453 62542
292602 67215
30466 249780
30466 197823
30466 92085
30466 204707
30466 175573
30466 363984
30467 346396
30467 129208
292611 43905
30478 44467
30486 87503
30486 306150
30486 31906
30486 208482
30486 31258
30497 384721
30499 31313
30501 121428
30501 30671
30501 63700
292645 240876
30507 218958
292659 37545
292660 37545
30517 34283
292690 294416
30551 104281
30553 221841
30553 65411
30569 156396
30569 300472
30569 110867
30569 421273
292715 97010
30573 48449
30578 430668
30578 321142
30578 366934
30578 123703
30578 160045
30578 299622
30578 455220
30578 156838
30578 181266
30578 415308
30578 149788
30578 257856
30578 358732
30578 356228
30578 208861
30578 201610
30578 339321
30578 248536
30578 175026
30578 300355
292740 40279
30600 113223
292749 40279
292748 129563
292755 120347
292763 35255
30624 131557
30635 137549
30635 86973
30635 167583
30639 102404
30639 68149
30639 75958
30639 302770
30639 71549
30639 117692
30639 368070
30639 50330
30639 113895
292783 324281
292786 38695
30644 89660
30648 90566
30651 311287
30674 92085
30675 118179
292823 171398
292823 43987
292823 62726
292831 391704
292848 337292
292848 292849
30710 246309
30724 30739
30724 45232
30737 124566
30742 30827
30742 133268
30763 61421
292914 32794
30773 75741
292919 292920
30800 205262
30800 232326
30800 153268
30813 57674
292968 177931
292968 47666
30827 303645
30827 107895
30827 128626
30832 138026
30837 361821
30837 299070
30837 41949
30837 109870
30839 37952
30857 253883
30857 362386
30857 229635
30857 80816
293018 50206
30881 32643
30894 61781
30914 68227
30931 144322
30931 39470
30931 175800
30941 83087
30960 214690
30960 214691
30961 38166
30961 174176
30965 250352
30965 247324
30965 38195
30968 390339
30990 87235
30993 31477
31022 42182
31023 119548
31031 248873
31031 309951
31031 107084
31031 114561
31031 118008
31031 432227
31031 370042
31031 304440
31031 354384
31031 383248
31031 192824
31031 335568
31035 229481
31068 240969
293222 318374
293237 170623
293275 60021
293280 31500
31136 57791
31143 94514
293312 188032
31171 211947
31171 169523
31171 60128
293317 157104
293317 101940
293330 70338
31209 131945
31212 171297
31212 140468
293356 326481
31216 340791
31216 255035
31216 305121
31216 61740
31217 375251
31217 61417
31217 244611
31224 354481
31224 113006
31224 225711
31224 124167
31224 407341
31224 178782
31225 44983
31227 100986
31231 58992
31234 56664
31234 128109
31234 116476
31234 156530
31234 357473
31234 190580
293388 68702
31251 253863
31256 252307
31256 310209
293401 198048
31258 41746
31258 63700
31258 92507
31259 215804
31259 38510
31262 309593
293410 121553
293413 359960
293415 327042
31271 62596
293417 122469
31290 410442
31291 308668
31306 352682
31310 341599
31310 31594
31310 297387
31310 122272
31310 405505
31310 367807
31310 398147
31310 72026
31310 445724
31311 80720
293455 316883
31313 109342
31313 218249
31313 37037
31313 202406
293459 37523
31325 31327
31327 85524
31327 77553
31327 118527
31335 126276
293502 63032
293544 139788
293550 85599
293552 40118
31415 217006
31416 81959
293569 112050
293571 253140
31430 46334
31438 35404
31446 99386
31446 202284
31450 383386
31450 167687
31450 395936
31450 258580
31450 299559
31450 391463
31450 350424
31450 90980
31450 355345
31450 410156
31450 143714
31450 354883
31450 149557
31450 208911
31450 355296
31450 47015
31450 296607
31450 252829
31450 310213
31450 166658
31450 207686
31450 198300
31452 32341
31458 128819
31458 248559
31477 68949
31479 33907
293642 90326
293644 31836
31507 146468
31510 61836
31510 61632
31510 119884
31510 424420
31510 393384
31510 362528
31510 203097
31510 201246
31510 143720
31510 188803
31510 366858
31510 230972
31510 362001
31510 300886
31510 309254
31510 402392
31510 357850
31520 63835
31523 323649
31523 338545
31528 405687
31528 232172
31528 437735
31529 31915
31532 73097
31532 160824
31532 325876
31532 377241
31534 386559
31534 316409
31534 412955
31534 99326
31534 120525
31534 377252
31534 202281
31534 372257
31534 407922
31534 333320
31534 306934
31534 453636
31534 139964
31534 197474
31534 341989
31534 336847
31534 356606
31534 311888
31534 109869
31534 81852
31534 117394
31534 347661
31534 309350
31534 400184
31534 411654
31534 322410
31534 302071
31534 254518
31534 156949
31534 193746
31534 193661
31534 160508
31534 438878
31534 328475
31534 321899
31534 449401
31534 303990
31534 378585
31534 439698
31540 85028
31549 348355
31549 256231
31549 300886
31549 450651
31549 260992
31549 391586
31549 258220
31549 299527
31549 363529
31549 117709
31549 347961
31549 351264
31549 391739
31549 254902
31549 299504
31549 114073
31549 306388
31549 453626
31549 203861
31549 81261
31549 182064
31549 63849
31549 419323
31549 377272
31549 37136
31549 308830
31549 72043
31549 183690
31549 444278
31549 343715
31549 334795
31549 443059
31549 254572
31549 432652
31549 329225
31549 321505
31549 327710
31549 369737
31549 40798
31549 202566
31549 336749
31549 182781
31549 335761
31549 335743
31549 434043
31549 312557
31549 397577
31549 63369
31549 61459
31549 163412
31557 87228
31564 60496
31564 42251
31564 116830
293714 57159
31573 46904
293720 301283
31585 186681
31585 82894
31585 188150
31585 205307
31585 182781
293759 101717
293760 148501
31624 87282
31624 139471
31624 68647
293802 250519
31664 147353
31664 53485
31668 361869
31668 68149
31668 337099
31668 114629
31678 110451
31678 239297
31678 196859
31678 182158
31678 104803
31678 412939
293827 174943
293827 54863
31696 34236
31696 31801
31696 110444
31697 338377
31698 34922
31698 258106
31698 57469
31698 35016
31698 34950
31703 47015
293854 124534
31717 98108
31739 379312
293912 45796
293921 116683
293923 136913
31783 129996
31783 222817
31783 432487
293928 167606
293928 255846
31789 31817
31789 73842
31792 32972
31793 170630
31800 35452
31800 70798
31809 74150
31809 41935
293955 61221
293956 84134
31820 144208
31820 203456
31820 250643
293975 68308
31832 179799
31832 52469
31832 49178
293977 95905
31836 56812
31836 381454
31836 116515
31836 116510
31836 197759
31836 93397
31836 380113
31836 400509
31836 157722
31836 209089
31836 151590
31836 326573
31841 56509
31841 31843
31846 52474
293992 37341
31850 47015
31865 345298
31875 441673
31877 115132
294044 36224
31919 149509
31938 47015
31939 155672
294096 65404
294096 186729
294097 79577
294101 32226
31966 50226
31966 138412
31966 130350
31966 63700
31967 33599
31979 406545
31979 120760
294134 360276
294135 360276
294138 227059
294145 80257
294149 69878
294150 59945
32011 199642
32032 32050
32038 165330
32045 188815
32050 257544
32050 346768
294205 42927
32101 50901
294262 37726
32129 50733
32129 41796
32154 37594
32170 98083
294332 52047
294333 101891
32202 186560
32202 79423
32202 53871
32226 398214
32226 44326
32226 306604
32226 39548
32226 59720
32226 259211
32226 356426
32226 145545
32226 208407
32226 159879
32226 424732
32226 93268
32226 377537
32226 137954
32226 82761
32226 404316
32226 437612
32226 179623
32226 233241
32226 59292
32226 316805
32226 258357
32226 229385
32226 105906
32226 245818
32226 220023
32226 241669
32226 372184
32226 380081
32226 110489
32226 133270
32226 401103
32226 307186
32226 101330
32226 158053
32226 196375
32226 114843
32226 44584
32226 231607
32226 186599
32226 62888
32226 186613
32226 242596
32226 99495
32226 350867
32226 241015
32226 435711
32226 258194
32226 44185
32226 402066
32226 434477
32226 442281
32226 192463
32226 240518
32226 403394
32226 442232
32226 228675
32226 37577
32226 449198
32226 220118
32226 65575
32226 348746
32226 297931
32226 212197
32226 47538
32226 122047
32226 69110
32226 369036
32226 202609
32226 298262
32226 232283
32226 219690
32226 113779
32226 377084
32226 437922
32226 163544
32226 372250
32226 41520
32226 98022
32226 58684
32226 90511
294369 352967
32247 134889
32247 130720
32254 250015
32268 98645
294411 294416
294416 386295
294416 301104
294416 307031
294416 400791
294416 379537
294416 353161
294416 337775
294416 402610
294416 365018
294416 300573
294416 428331
294416 410127
294416 384746
294416 374694
294416 349292
294416 315655
294416 384646
294416 337402
294416 302627
294416 384643
294416 342838
294416 365554
294416 348639
294416 361096
294416 308457
294416 361826
294416 300574
294416 330835
294416 351886
294416 255293
294416 356434
294416 388892
294416 365019
294416 149265
294416 448134
294416 75622
294416 357624
294416 384645
294416 344129
294416 84147
294416 374050
294416 369151
294416 350985
294416 300051
294416 382395
294416 378663
294416 309348
294416 337778
294416 356439
294416 329572
294416 174745
294416 232215
294416 351713
294416 361912
294416 397094
294416 308483
294416 383409
294416 301102
294416 225190
294416 429438
294416 362952
294416 351834
294416 306019
294416 411018
294416 368767
294416 43252
294416 384418
294416 361306
294416 424597
294416 348274
294416 394445
294416 305763
294416 382898
294416 356838
294416 451646
294416 437418
294416 344189
294416 383991
294416 430649
294416 338627
294416 233328
294416 359028
294416 438927
294416 310015
294416 350446
294416 367539
294416 394273
294416 382897
294416 430907
294416 382814
294416 382714
294416 297318
294416 453119
294416 434806
294416 388784
294416 312778
294416 157193
294416 361304
294416 395461
294416 308458
294416 451356
294416 84145
294416 358886
294416 139067
294416 224561
294416 309349
294416 301106
294416 432689
294416 342817
294416 382304
294416 361913
294416 310816
294416 356437
294416 407427
294416 362770
294416 178677
294416 384543
294416 378064
294416 300546
294416 297752
294416 190406
294416 376165
294416 242863
294416 368149
294416 321352
294416 312596
294416 343952
294416 387569
294416 307457
294416 397367
294416 335965
294416 59535
294416 355256
294416 356398
294416 244887
294416 378068
294416 295868
294416 191082
294416 424189
294416 394274
294416 353159
294416 394136
294416 400200
294416 203667
294416 391630
294416 374692
294416 382711
294416 375943
294416 304673
294416 371605
294416 432253
294416 305225
294416 329931
294416 356840
294416 233334
294416 59340
294416 378067
294416 418366
294416 337780
294416 430060
294416 386376
294416 360300
294416 384152
294416 444997
294416 425160
294416 376694
294416 304353
294416 403735
294416 300053
294416 362930
294416 191432
294416 344180
294416 394444
294416 442639
294416 383469
294416 348273
294416 305227
294416 415079
294416 343059
294416 231653
32269 32691
32274 201832
32274 73917
32274 126308
32305 143901
294458 52474
294469 90217
32333 358032
32333 195802
32333 143440
32333 194370
32333 419154
32333 368828
32333 424873
32333 195553
32333 195788
32352 103577
32352 232237
294497 56698
32381 53526
32382 136111
32382 37366
32382 238907
32382 58304
32382 126098
32401 98940
32402 98940
294557 342688
294557 369528
294563 157897
32426 259849
32438 35421
32438 145330
32438 37443
32438 86357
32460 167331
294614 52579
32471 71312
32482 431543
32488 104663
32488 156418
32488 243203
32505 346723
32510 126822
32510 176617
32510 74894
32515 32532
32532 41620
32532 144336
32532 88294
32532 215296
32563 89436
32564 40780
32564 241083
32564 405771
294711 52469
294711 59945
32592 136930
32592 95783
32598 115382
32598 37411
32604 57061
32655 49219
32662 230669
294833 46203
294860 351310
294878 294879
294910 250964
32772 47868
32784 129867
32794 383349
32794 329896
32794 36320
32794 225181
32794 250556
32794 119529
294950 109808
32811 144415
32811 49955
294956 250519
294957 294958
294978 250519
294991 64577
294991 49750
295000 113099
295002 113099
295003 113099
295008 139255
32865 77471
32865 49973
32865 77456
32865 77410
32902 201125
32902 256922
32923 44400
32931 69589
295088 38250
32954 75926
32954 154632
32961 224709
32972 337970
32972 101981
32972 90976
32972 55951
32972 69127
32972 95221
32972 57528
32972 41935
32972 64585
32972 72724
32972 56169
32972 117092
32972 328165
32972 62139
32972 138620
32972 392468
32972 127848
32972 101132
32972 144984
32972 131538
32972 376078
32972 138412
32972 386123
32972 368866
32972 366501
32972 386806
32972 380809
32972 113914
32972 34708
32972 62195
32972 99145
32972 51816
32972 247794
32972 50311
32972 59908
32972 47168
32972 417565
32972 71560
32972 112484
32972 49685
32972 205168
32972 423253
32972 109082
32972 362462
32972 332574
32972 397827
32972 314523
32972 309913
32972 113385
32972 61438
32972 355524
32972 118271
32972 161592
32972 169385
32972 190819
32972 146069
32972 55940
32972 63793
32972 179276
32972 84344
32972 446738
32972 90979
32972 75346
32972 330242
32972 148258
32972 435339
32972 376751
32972 103844
32972 393904
32972 352317
32972 334244
32972 56075
32972 235473
32972 339819
32972 379017
32972 169055
32972 394689
32972 351537
32972 340348
32972 345037
32972 344696
32972 71528
32972 394392
32972 50341
32972 405541
32972 123618
32972 50769
32972 41939
32972 34236
32972 301200
32972 64277
32972 302981
32972 35334
32972 369503
32972 310596
32972 354083
32972 401921
32972 233448
32972 326615
32972 104057
32972 39120
32972 418506
32972 122694
32972 393039
32972 33719
32972 49179
32972 127290
32972 205346
32978 41746
32984 102579
295140 329890
32997 36427
33007 152079
295196 90394
33076 56569
33088 57941
33088 181027
33088 49360
33088 46500
33087 165060
33095 41082
33099 415404
295272 55471
33146 43168
33146 66750
33146 50901
33146 79125
33150 115747
33151 113699
295298 122469
295349 40303
33208 46510
33215 331384
33262 244854
33276 56262
33276 33476
33279 82124
33294 63804
33295 238763
33295 76370
33295 34689
33295 57496
33297 72493
33297 296248
33297 378419
33297 75776
33299 194147
33303 190896
33303 301698
33303 63215
33303 34213
33303 227104
33310 148687
33313 453404
33313 422551
33313 169085
33313 132277
33313 126144
33313 345023
33313 153908
33313 213623
33313 327836
295472 139757
33331 145460
33331 47561
33331 155090
33331 211549
33331 255025
295498 433040
33359 41935
295528 347745
33386 110673
33386 354349
33386 205919
33386 240949
33386 387519
33386 398363
33386 393124
33386 407054
33386 257674
33386 226677
33386 330236
33386 328289
295542 146250
33413 59905
295574 332912
295574 109424
295584 59343
33452 185037
295611 35366
295611 52474
295613 52474
295614 107198
33471 35366
33476 330871
33476 410703
33476 342414
33476 102517
33476 408030
33476 125704
33476 140784
33476 349001
33476 397827
33476 176522
33476 325662
33476 380637
33476 131842
33476 347786
33476 374177
33476 421478
33476 59395
33476 353107
33476 333518
33476 325839
33476 315013
33476 386934
33476 436838
33476 438005
33476 317506
33476 324234
33476 243237
33476 431862
33476 159760
33476 211569
33476 193628
33476 330241
33476 324993
33476 424006
33476 132118
33476 397910
33478 38488
295628 52474
33495 181047
295640 186854
295643 380032
295663 68278
33529 57756
295687 357224
33568 180154
33569 103447
33569 105416
33569 212194
33569 98992
33569 147628
33569 129697
33569 56584
33569 226615
33569 103439
33569 55783
33569 42182
295729 209683
295745 112503
33601 369005
33601 176999
33601 159469
33601 212069
33601 358042
33601 351570
33601 85456
33601 330920
33601 200135
33601 313174
33601 345763
33601 326696
33601 192840
33601 241407
33601 164541
33601 217421
33601 453327
33601 41999
33601 240300
33601 415589
295761 250519
33638 451615
33638 451503
33641 72885
33643 33646
295787 322481
33646 242766
295796 255909
33657 49178
33664 69589
33674 72394
33680 98573
33705 119100
33705 396786
33705 34205
33705 375936
33719 364689
33719 90979
33719 34262
295879 50235
33743 127503
33743 257190
33743 257205
33743 388955
295897 36176
33755 61459
33755 197072
295904 412437
33770 49585
33770 252525
33770 162680
33770 143979
33770 337350
33787 157929
33787 209250
33787 176786
33810 421691
295954 34719
33814 123417
295975 57159
33831 209161
33831 380539
33831 236489
33831 154843
33831 84385
33831 378042
33831 143774
33831 109976
33831 222301
33831 38944
33831 145413
33831 209682
33831 43793
33831 337718
33831 176558
33831 231429
33831 86258
33831 452391
33831 172747
33831 213369
33831 217765
33831 55110
33831 51135
33831 422224
33833 41854
33833 50257
33833 50239
33833 50247
33833 50231
33833 50267
33833 50299
33833 41944
33833 185226
33833 50276
33833 138412
33833 354684
33833 50260
33833 50244
33833 184628
33833 366506
33833 50226
33833 50268
33840 323051
33840 451709
33840 84896
33851 126840
33854 44348
295998 198237
296012 82192
33878 207285
33886 253222
296041 68278
296045 57159
33903 333540
33903 68786
33903 299666
33903 217514
33903 352582
33903 100097
33903 309513
33912 110596
296082 305714
296082 52847
296082 129586
296082 65405
296082 147309
296082 66320
296082 86999
33946 134554
296104 53018
33970 83913
33976 100278
33980 33998
33986 56304
296131 44371
33998 120384
296167 77211
296167 77279
34027 245462
296180 120348
34074 124334
296223 73979
34080 149655
34086 333412
34093 314970
34094 298376
34094 312266
34094 111808
34094 213126
34094 108421
34096 354835
34101 34111
34113 78993
296257 67032
34126 445139
34126 308037
34126 140839
34126 232475
296289 54200
296291 69237
296297 355458
34170 36681
34178 313180
34178 330254
34192 56926
34200 61421
34218 207205
34218 34236
34223 34266
34236 324176
34236 121759
34236 443078
34236 358611
34236 64585
34236 205974
34236 328333
34236 57494
34236 392274
34236 170934
34236 148764
34236 369451
34236 326368
34236 58551
34236 186341
34236 99170
34236 90979
34236 113727
34236 363889
34236 65276
34236 116743
34236 375152
34236 47015
34236 117661
34236 300796
34236 39277
34236 338587
34236 48779
34236 128347
34236 34999
34236 64719
34236 304772
34236 235473
34236 339175
34236 165091
34236 91303
34236 65394
34236 305322
34236 172328
34236 360059
34236 320249
34236 40247
34236 342949
34236 170932
34236 133047
34236 416967
34236 39159
34236 328165
34236 302097
34236 35334
34236 178028
34236 131538
34236 109281
34236 197538
34236 315490
34236 382076
34236 102314
34236 154403
34241 90041
34241 143472
296386 50299
34244 40251
34249 63135
34249 72844
296399 51757
34262 213680
34262 102471
34262 230372
34262 59234
34275 402424
34275 134856
34275 323183
34275 395607
34279 125905
34283 370599
34283 349780
34283 418241
34283 311475
296431 68702
34300 34301
296444 380703
34305 437695
34305 339657
34305 66279
34305 99075
34305 133047
34305 381034
34305 330548
34305 339177
34305 305086
34305 331831
34305 342030
34305 184278
34305 432234
34305 341824
34305 389570
34305 347188
34305 80580
34305 373447
34305 249373
34305 352905
34305 146641
34305 251985
34308 339674
34308 354063
34308 83183
34312 374723
34312 227474
34312 404942
34312 257809
34312 374637
34312 349694
34312 415873
34312 391622
34312 338855
34312 394854
34312 129712
34312 351451
34312 435516
34312 407026
34312 189013
34312 377415
34312 420619
34312 379086
34312 163414
34312 424041
34312 424752
34312 323642
34312 189009
34312 58121
34312 381486
34312 357582
34312 375990
34312 371145
34312 357643
34312 349533
34312 425982
34312 426998
34312 368417
34312 337289
34312 404195
34312 422142
34312 297483
34312 193936
34312 124915
34312 102479
34312 429067
34312 375991
34312 366547
34312 363936
34312 369344
34312 309702
34312 338048
34312 392092
34312 298573
34312 397493
34312 173546
34312 388079
34312 376060
34312 375923
34312 203526
34312 401192
34312 342228
34312 387873
34312 169893
34312 252333
34312 399950
34312 248881
34312 423028
34312 437252
34312 119216
34312 368711
34312 304644
34312 186332
34312 197760
34312 455985
34312 346209
34312 325380
34312 56277
34312 406894
34312 352545
34312 397472
34312 209948
34312 390889
34312 359795
34312 193729
34312 233445
34312 386318
34312 353571
34312 312296
34312 379485
34312 102531
34312 384580
34312 411663
34312 79052
34312 384937
34312 342747
34312 301510
34312 375299
34312 441559
34312 383458
34312 239393
34312 431404
34312 406429
34312 407591
34312 332573
34312 365925
34312 82202
34312 371686
34312 357807
34312 167692
34312 437838
34312 440814
34312 144944
34312 182210
34312 303351
34312 438657
34312 356702
34312 409192
34312 300748
34312 422232
34312 418897
34312 381731
34312 339623
34312 307875
34312 134305
34312 379948
34312 90616
34312 343988
34312 403383
34314 124119
34324 90084
34324 112429
34324 203778
34324 48737
34324 363309
34324 324333
34324 49610
34324 95151
34333 418689
34333 82116
34333 52908
34352 91457
296497 101738
34354 305425
34367 243304
296534 36543
296534 37443
296540 64577
34402 176210
296560 431660
296578 329890
34439 60236
296605 53504
296607 57105
34471 73450
34476 99369
296656 187720
296671 257673
34553 43597
34555 132625
34555 188858
34564 399064
296737 58411
296739 57159
296748 95905
34615 34620
34625 309181
34625 401664
34625 60554
34625 248263
34625 360886
34636 194463
34642 93578
34644 138831
34663 42927
296810 36224
34689 144551
34689 100963
34697 330254
296845 188032
296852 128559
34710 78432
34719 230786
34719 429549
34719 407547
34719 367669
34719 352545
34719 367153
34719 381511
34719 240643
34719 367511
34719 406306
34719 174294
34719 342228
34719 370055
34719 204993
34719 162131
34719 119421
34719 404452
34719 374116
34719 418604
34719 414523
34719 82270
34719 335870
34719 407485
34719 300668
34719 366079
34719 356145
34719 416886
34719 405047
34719 53619
34719 91811
34719 246567
34719 170261
34719 378462
34719 328832
34719 261753
34719 371146
34719 309525
34719 423124
34719 418809
34719 301476
34719 82686
34719 297889
34719 371092
34719 429599
34719 397195
34719 449629
34719 301391
34719 343943
34719 402533
34719 225426
34719 322306
34719 105510
34719 390889
34719 374340
34719 361047
34719 394223
34719 392671
34719 169891
34719 165299
34719 61113
34719 116345
34719 392821
34719 225428
34719 374651
34719 325559
34719 431006
34719 383205
34719 237540
34719 333176
34719 401258
34719 385999
34719 173265
34719 363701
34719 306619
34719 357477
34719 443035
34719 235476
34719 257557
34719 442121
34719 141167
34719 428604
34719 258178
34719 384280
34719 202769
34719 392010
34719 360119
34719 311588
34719 432414
34719 299389
34719 406324
34719 413240
34719 413384
34719 397049
34719 425983
34719 394886
34719 167692
34719 343812
34719 357799
34719 369828
34719 401684
34719 391385
34719 378609
34719 348391
34719 420765
34719 432066
34719 402436
34719 436791
34719 300305
34719 90616
34719 404477
34719 403843
34719 395933
34719 340006
34719 313768
34719 434998
34719 327196
34719 421865
34719 388640
34719 102476
34719 319258
34719 233442
34719 405069
34719 387806
34719 344847
34719 424094
34719 350428
34719 311780
34719 119399
34719 326573
34719 307561
34719 411469
34719 102338
34719 383092
34719 421797
34719 106277
34719 406057
34719 437691
34719 59362
34719 392096
34719 379247
34719 324863
34719 187798
34719 382141
34719 140797
34719 375206
34719 312253
34719 328201
34719 367635
34719 117287
34719 395168
34719 444801
34719 201081
34719 184281
34719 129719
34719 155958
34719 320636
34719 436113
34719 396060
34719 387267
34719 167082
34719 141135
34719 371885
34719 322127
34719 330899
34719 377468
34719 396239
34719 316046
34719 360242
34719 377473
34719 359997
34719 244923
34719 298948
34719 326976
34719 391379
34719 339246
34719 410815
34719 430546
34719 347313
34719 409092
34719 74948
34719 380666
34726 328087
34726 136135
34727 52147
34746 177273
34746 134664
34746 186070
34746 190629
34746 369952
296912 296913
34787 440720
296932 57306
34800 412434
34800 415645
34806 58146
34806 44058
34806 343652
34806 75737
34808 226951
34809 302988
34809 380640
34809 250933
34809 381939
34809 348492
34809 105777
34809 35562
34809 409370
34809 419045
34809 343957
34809 377837
34809 40279
34810 126150
34810 119161
34810 413809
34810 150925
34810 113016
34810 410740
34810 78676
34810 210420
34810 153328
34805 184760
34834 238796
34841 52016
297002 206753
297003 80926
34870 251926
34872 105591
297035 57159
34904 59983
34905 134066
34908 302770
34908 235473
34908 297936
34914 119572
34918 49695
34922 38277
297070 77656
297073 68524
297073 352147
34945 354083
34949 37545
34949 59945
34950 102320
297098 57105
34961 122368
34963 150043
34963 90730
34963 96803
34963 109672
34963 392331
34963 60154
34963 61227
34963 410740
34963 354353
34963 336457
34963 116637
34963 342910
34963 421043
34963 405895
34963 386298
34963 386093
34963 174011
34963 430686
34963 383621
34963 402360
34963 317376
34963 399146
34963 226023
34963 186332
34963 327886
34963 378419
34963 211677
34963 146766
34963 313753
34963 404617
34963 304999
34963 330228
34963 376125
34963 121071
34963 398313
34963 171282
34963 361060
34963 110275
34963 407574
34963 374818
34963 371865
34963 35034
34963 195809
34963 140892
34963 158079
34963 235473
34963 341975
34963 82182
34963 203450
34963 116130
34963 387539
34963 347500
34963 353275
34963 371256
34963 309277
34963 113887
34963 190997
34963 399439
34963 53442
34963 171957
34963 361951
34963 249801
34963 328882
34963 342201
34963 211748
34963 215054
34963 343007
34963 170055
34963 338951
34963 90977
34963 358657
34963 334536
34963 183734
34963 441101
34963 161784
34963 336790
34963 116756
34963 62195
34963 205887
34963 403103
34963 112402
34963 62214
34963 350062
34963 320350
34963 405874
34963 234258
34963 118819
34963 402346
34963 334848
34963 239572
34963 101149
34963 95429
34963 418381
34963 373447
34963 382042
34963 395746
34963 82941
34963 353010
34963 319640
34963 134596
34963 116523
34963 434213
34989 110406
297144 59945
297144 39164
35015 57469
35015 39443
35015 57967
35039 122368
35055 234264
297202 40279
297203 66910
297208 297209
35068 37521
35068 355816
35068 90979
35068 83188
297214 68278
35075 35076
35081 182294
35081 46345
35082 62542
297225 73973
297233 52469
35099 113683
35109 88515
35109 121389
35109 56824
35109 140741
35109 95823
35109 94982
35121 58098
35129 51704
297274 251662
35135 35366
297284 55471
35164 211402
297319 113099
35185 107989
297349 116924
35211 47015
35228 172667
35229 51312
35245 62583
297393 373292
35255 304158
35255 56740
297397 95871
35265 135110
35289 75846
35298 109281
35306 40279
297456 64729
297456 297458
35314 78129
35334 357473
35334 47015
35334 57105
35334 157176
35335 35366
35353 356399
35353 64719
35353 64185
35353 159591
35353 406509
35353 219274
35353 90272
35353 335291
35353 171845
35353 102479
35353 69744
35353 359100
35353 346060
35353 342951
35361 64729
35361 66111
297508 69237
35365 381483
35365 162041
35365 406830
35365 451907
35365 394501
35365 349027
35365 382071
35365 202212
35365 362123
35365 35869
35365 144200
35365 243961
35366 340967
35366 419457
35366 209786
35366 150131
35366 86377
35366 225172
35366 192458
35366 90060
35366 415693
35366 90979
35366 394501
35366 346222
35366 56423
35366 75770
35366 65548
35366 219480
35366 243237
35366 393227
35366 322306
35366 371706
35366 259132
35366 115758
35366 206028
35366 346239
35366 163840
35366 250093
35366 259131
35366 362904
35366 396320
35366 325068
35366 354068
35366 356651
35366 426033
35366 69873
35366 167049
35366 98917
35366 372506
35366 64552
35366 410740
35366 406298
35366 339175
35366 386298
35366 148245
35366 61250
35366 384460
35366 229790
35366 130959
35366 209953
35366 128438
35366 174011
35366 255697
35366 98905
35366 333913
35366 368465
35366 390372
35366 350830
35366 379806
35366 165741
35366 379991
35366 121801
35366 353275
35366 339506
35366 179073
35366 327816
35366 63038
35366 435128
35366 82667
35366 303592
35366 116130
35366 356450
35366 162519
35366 255699
35366 392136
35366 77399
35366 238616
35366 309277
35366 92834
35366 402360
35372 140797
35372 254706
35372 132002
35372 261366
35373 334367
35374 254031
35404 223559
35414 144109
35414 48367
35414 88062
297563 238524
297563 113315
35426 324916
35426 163708
35426 84909
35426 78902
35426 126032
35426 94938
35426 39381
35428 153287
35429 70011
35433 95339
35434 47015
35440 409366
35440 400805
35440 163736
35447 64898
297592 197754
35457 145567
297606 133735
35465 422929
35465 241503
35483 443227
35483 386775
297637 226947
35495 137213
297651 415051
35524 35555
35524 226187
35527 42182
297681 134198
35538 114023
35545 73338
35562 110690
297713 36681
35570 216391
35570 35586
35570 41480
35575 151999
35575 78492
35575 60018
297720 122488
35579 125179
297726 194287
35586 203863
35586 163771
35594 110662
35604 212039
35604 42182
35604 141586
35612 68738
35612 245427
35612 69311
35612 97002
35622 407822
35625 151635
297774 161907
297783 68278
35646 181216
297790 327070
35648 245898
35648 209910
297794 359960
297800 89926
35704 50237
35723 149443
35727 118964
35744 94306
297890 297892
35747 82963
35751 123280
35756 42182
297903 68278
35772 438303
35772 37137
35772 366464
297919 59397
35778 135697
297924 37545
35805 431271
297962 68278
297967 68702
35825 64779
35845 97573
297995 320142
35858 115753
298004 88804
298007 86082
298014 51757
298016 123256
298016 326332
35882 83264
298030 211076
35899 112636
35940 108632
298085 393052
35967 82413
35990 145000
36034 111403
36038 350474
36038 392286
36038 438679
36038 380132
36055 299572
36055 441924
36055 224644
36063 200573
36075 300235
36079 120682
36079 116511
36079 58154
36079 102320
36079 92372
36079 251204
36102 174943
298254 80255
36119 310336
36119 76609
298266 298267
36126 36124
36126 50733
36135 257323
36135 408332
298283 48552
36164 73227
36165 120158
36174 208639
36174 99326
298318 36410
36176 351340
36176 95180
36176 193562
36176 102427
36176 193563
36176 426747
298342 237506
298342 39889
36211 404310
36220 375708
36224 365907
36224 379143
36224 325426
36224 362270
36224 347750
36224 439722
36224 75266
36224 373809
36224 124058
36224 231801
36224 309147
36224 384440
36232 170326
36232 352953
36232 413078
298376 40661
36236 242160
298384 384531
36247 189948
36247 144621
36247 73403
36252 413078
36252 56381
36252 186977
36252 450859
36252 381245
36252 306537
36252 382629
36253 307324
36259 41179
298408 247552
36274 67842
36275 67435
298428 309941
36285 105339
298430 38878
36304 86297
36304 168570
36304 70055
36304 303755
36304 187177
36304 81988
36304 143906
36304 247457
36311 211805
36311 154153
36313 180053
36328 53452
36336 67501
298484 37545
298484 40279
298499 46181
36360 36642
36366 343266
36368 251046
36368 40798
36368 434100
36368 78789
36368 334794
36368 326402
36368 107084
36368 250897
36368 336749
36368 185320
36368 330059
36368 308105
36368 319684
36368 45632
36368 399283
36370 250431
36370 421479
36370 246264
36371 194668
36371 223398
36371 363411
36371 227016
36371 64121
36371 177843
36371 237976
36371 207334
36371 342707
36371 127640
36371 318882
36371 378139
36371 253175
36371 210323
36371 194677
36371 215453
36371 217909
36371 304920
36371 210830
36371 171640
36371 232604
36371 77681
36371 47389
36371 452839
36371 195869
36371 400012
36371 223404
36371 330003
36371 403243
36371 349616
36371 152014
36371 228869
36371 227006
36371 228871
36371 121029
36371 417626
36371 261754
298520 42927
36379 226160
36384 132651
36396 128559
36402 61879
36432 213996
36434 42177
298594 68702
36454 47666
36490 44661
36490 91959
36503 177150
36503 196658
36503 121428
36503 143846
36503 212549
36507 38277
36535 127174
36541 44613
36541 94306
36559 89012
36562 430102
36562 313832
36567 143282
36567 195435
36571 185480
36571 429006
36587 336586
36594 174545
298745 39874
298749 47756
298751 63455
298760 145349
36620 109245
298764 69891
36634 50901
298780 52972
36645 77904
36645 197344
298791 298792
36667 43026
298817 374254
298825 93503
36681 108758
36681 95932
36681 92861
36681 207118
36681 196792
36681 76919
36681 310489
36681 114309
36681 79227
36681 111763
36681 93474
36681 224770
36681 102560
36692 50733
36694 36707
298839 298840
298849 95905
36708 189710
36711 90563
36729 110903
36731 64494
36734 204588
36742 160757
36744 418152
36744 308530
36744 215179
36744 302845
36744 45105
298892 299635
36755 209292
36756 67501
36757 42373
298906 56698
36780 48022
298941 298942
36799 229780
36806 73142
36806 169614
36806 151782
298952 58028
36818 94226
298964 166095
298965 55965
298971 57105
298981 121467
36837 105491
36841 438694
36854 156342
36854 160725
36854 36905
299000 351567
36861 88273
36872 373536
36874 36898
299019 65097
36896 162713
299042 65141
299044 114835
36916 154606
36916 60633
36916 81150
36921 390939
36921 250730
299064 93306
299072 68278
299073 128559
299071 68278
36935 238061
36938 60186
36938 169193
36939 369698
36939 90797
36940 412140
36940 318832
299086 57105
299086 328165
36953 164315
299104 40550
36973 84419
36981 131511
36981 311055
36984 135110
37008 135334
299165 331980
37044 160824
37075 342688
299223 68278
37083 81846
37083 326590
299234 79653
299234 68278
299234 245842
299235 321885
37092 39147
37097 125162
37107 70958
37128 125523
37134 245667
37134 337852
37134 110472
37134 357773
37134 321671
37134 252539
37134 425357
37134 63746
37134 236614
37134 118296
37134 387534
37134 387479
37134 341004
37134 195878
37134 342025
37134 43965
37134 331259
37134 340291
37134 106820
37134 432139
37134 313913
299279 257620
37138 141386
37177 40366
37181 50733
37184 83581
37191 155540
37201 88094
299346 49178
37209 86364
37219 115074
37219 42653
37241 103751
299385 66278
37243 103751
37259 66990
37261 43185
37293 117369
37331 43564
37331 89327
37331 125727
37341 249877
37341 439387
37341 211273
37341 406844
37341 413081
37341 106609
37341 151540
37341 331047
37341 89325
37341 427492
37341 228033
37341 194943
37341 395616
37341 68583
37341 92836
37341 317533
37341 413988
37341 446940
37341 104205
37341 437455
37341 250435
37341 163019
37341 80456
37341 365512
37341 157050
37341 198992
37341 368179
37341 254002
37341 145948
37341 159268
37341 222636
37341 87839
37341 128799
37341 319447
37341 151859
37341 406736
37341 322454
37341 63823
37341 449193
37341 251326
37341 328613
37341 253106
37341 108253
37341 369785
37341 167100
37341 167230
37341 85252
37341 437872
37341 433134
37341 351037
37341 173991
37341 76379
37341 211067
37341 251411
37341 355477
37341 251720
37341 173637
37341 385280
299528 62542
37386 136594
37396 58241
299559 185171
37421 204014
299569 66422
37428 149412
37428 53575
37428 42182
37428 212918
37435 122673
37435 345081
37435 174536
37443 44183
37443 208753
37443 53143
37443 402709
299588 329706
299597 57105
37455 120347
37466 131563
37483 62247
37488 57528
37501 60230
37507 116323
299652 340465
37523 435636
37523 325662
37523 381680
37523 327186
37523 416585
37523 250643
37523 345014
37523 338253
37523 365373
37523 335453
37523 144234
37523 370991
37523 369643
37523 397631
37523 438789
37523 436803
37523 360747
37523 410095
37523 124541
37523 252490
37523 316941
37523 63005
37523 404863
37523 163413
37523 316367
37523 335994
37523 358546
37523 451684
37523 301630
37523 372277
37523 357838
37523 396983
37523 438333
37523 344846
37523 140808
37523 434657
37523 393732
37523 375474
37523 373698
37523 348410
37523 451141
37523 421852
37523 407648
37523 413348
37523 178566
37523 323242
37523 57338
37523 316478
37523 433841
37523 330831
37523 435126
37523 259637
37523 327451
37523 378121
37523 324315
37520 154276
37536 119547
37545 323067
37545 367879
37545 340422
37545 92534
37545 245381
37545 428011
37545 316480
37545 418457
37545 422426
37545 356145
37545 341200
37545 408499
37545 374889
37545 404585
37545 321968
37545 362546
37545 432837
37545 326409
37545 411762
37545 372669
37545 426901
37545 100341
37545 370280
37545 234266
37545 310048
37545 405961
37545 80852
37545 410806
37545 242946
37545 386123
37545 90967
37545 376078
37545 365315
37545 92362
37545 404548
37545 148253
37545 364683
37545 358834
37545 69975
37545 335995
37545 256125
37545 213823
37545 410082
37545 403079
37545 424972
37545 300367
37545 45454
37545 378427
37545 117925
37545 327886
37545 383247
37545 397858
37545 353413
37545 381557
37545 118527
37545 419403
37545 125304
37545 102332
37545 182158
37545 383593
37545 310080
37545 91675
37545 387981
37545 391937
37545 376374
37545 407839
37545 384788
37545 410085
37545 116665
37545 341905
37545 127388
37545 181198
37545 74657
37545 312505
37548 116710
37548 340687
37550 57215
37550 223012
37550 312446
299703 60827
37559 155176
37559 434597
37559 56036
37559 361061
37559 386649
37559 213834
37559 95837
37559 104377
37559 191927
37559 233485
37559 413387
37559 439997
37559 260066
37559 187212
37568 257589
37568 215622
37568 319845
37568 323175
299715 236837
37607 42182
37612 69443
37620 163857
299797 68278
299815 186959
299815 68278
37676 43503
37676 207735
299827 123716
37692 64705
37697 167578
37699 50044
299845 97485
299858 57159
37717 103502
37717 166542
37720 49298
37726 87060
37726 135357
37726 193264
37726 172406
37726 136206
37726 261253
37726 229604
37726 428284
37726 46339
37726 47890
37726 60218
37733 91989
37737 76841
37753 80503
37753 199677
37761 429556
299912 73973
37796 426467
37796 347738
37796 189751
37803 335794
37803 94951
37803 58761
37803 58757
37803 399218
37803 153659
37803 351792
37803 212014
37803 95701
37803 46792
299947 101435
37814 73729
299963 66278
299970 151164
299975 79778
37832 436921
37832 453858
37832 375289
37832 379657
37832 172890
37832 417070
37832 56691
37832 406339
37832 348722
37832 252322
37832 185505
37832 178068
37832 357458
37832 380007
37832 110744
37832 165944
37832 116260
37832 319845
37832 169891
37832 251621
37832 445371
37832 397407
37832 340953
37832 389511
37832 370278
37832 391360
37832 410111
37832 390654
37832 156985
37846 66174
37856 129347
37856 54981
37856 401541
37856 211819
37856 197733
37860 227597
37860 227596
300017 123319
300017 143752
37883 49940
300034 95921
37897 50901
300056 40295
300069 83432
37928 193294
300080 213933
300080 357647
300080 49179
37941 78766
300085 300087
37952 186668
37952 186666
37952 186653
300107 39889
37964 68541
37964 162297
37964 392889
37964 320484
37964 419277
37964 388720
37964 174380
300111 241134
37968 305478
37968 163208
37968 340891
37968 46779
37968 103786
300131 110903
300138 301773
38001 74693
38001 65411
38001 74721
38001 191049
38001 76983
38007 248295
38007 138522
38010 55935
38010 76983
38010 109253
38021 185271
38022 378472
38029 38738
38030 38703
38030 38702
38033 101738
38043 57158
38042 101738
38061 80101
300217 101713
300218 310683
38077 145066
38081 261194
38081 71781
38085 237011
38085 73472
300251 72411
300292 393557
38155 351416
300306 50733
38174 80229
38174 250676
38195 68238
38210 206534
38210 322847
38214 314380
300364 40295
38230 393658
38230 377577
38231 93768
300385 125880
300386 107707
38247 455485
38249 377695
38249 360014
38249 319196
38250 436928
38250 79691
38250 403509
38250 67083
38250 355880
38250 116308
38250 214083
38250 58344
38250 161901
38250 237101
38250 79698
38250 209184
38250 396992
38250 144339
38250 442515
38250 223111
38250 129359
38250 233679
300397 101058
38254 393337
38258 62279
38260 169064
38260 394039
300407 252174
38266 54550
300412 68278
300417 206628
38277 172092
38277 149307
38277 58159
38277 221798
38277 129245
300443 54030
38312 170525
38314 84181
38326 42182
300483 136372
300483 60035
38341 126062
38342 107687
300504 65701
38365 75480
38365 47589
38366 38377
38377 60469
38377 129231
38377 78066
38377 146981
38377 453564
38377 437214
38377 430445
38377 174267
38377 60454
38377 146897
38384 185186
38387 105322
38387 75684
38391 67027
38393 124458
38395 67032
38395 317931
38398 75828
38401 66419
38401 128939
38401 86822
38402 38448
38418 424268
300574 84134
38430 60463
300577 122488
38441 420390
300587 43673
300588 315120
38448 105739
38448 412385
38448 169080
38448 242534
38448 369221
38448 155707
38448 391238
38448 399243
38457 55667
300607 250519
38487 41478
38545 327935
38545 64225
38545 426588
38550 75566
300699 364154
38556 426155
38556 38604
38562 43851
300707 334876
38563 91888
38566 331231
38566 38634
300710 447247
300710 384785
300710 442747
38569 74014
38573 97281
300719 300720
38576 190280
38580 98101
38593 38644
38593 100858
38593 174939
38593 164605
38599 87840
38601 89462
300745 244693
300766 68702
38632 413677
38632 210100
38632 46937
38632 94917
38632 338241
38632 241418
38632 179170
38632 195128
38632 439138
38632 441858
38632 68541
38632 422792
38636 104017
38644 176758
38658 82971
38660 43650
38692 38696
38695 106440
38695 172085
38695 66320
38695 113160
38695 102721
38700 127326
38702 38738
38702 101944
38702 180361
38723 240035
38730 101634
38738 66793
38738 57028
38738 105676
38738 57026
38741 83432
38741 65811
38748 429247
38767 87899
38767 307854
38767 202076
300917 50901
300923 40699
300930 198048
300932 122488
38801 67950
38803 157907
38803 74594
38834 44418
38866 69074
38875 77919
38878 63667
38878 108585
38884 39438
38888 107318
38895 84181
38900 54918
38903 411279
38907 153017
38917 172821
301066 119548
38937 148719
301081 194747
38939 42064
38939 83432
38941 375322
38941 196318
38941 409138
38942 88243
38942 254611
301100 59542
38958 122302
38963 136093
301138 68278
39001 79415
39006 165263
39028 93311
301175 175390
301200 314747
39068 305216
39074 94281
39074 91990
39074 93271
301227 215991
39083 133434
39085 39090
39096 55879
301245 39889
301247 329095
301250 68308
301250 109635
39117 59600
301269 44457
39130 133358
301274 55965
39147 71594
39147 367209
39147 240155
39161 209089
39164 102709
39164 424167
39164 178400
39164 100518
39164 355347
39164 121376
301310 100977
301333 153717
39192 254247
39204 49732
301354 59542
39213 52474
39217 206527
39221 44963
39243 71549
39244 74197
39262 382024
39270 79392
301415 47470
301415 43349
39286 89813
39295 171398
39295 121080
39327 138460
39331 146649
39351 138464
39369 39370
39372 76122
39372 449194
39373 188796
39373 74229
301526 99369
39398 160304
39398 175123
39415 250556
39415 151143
301563 50901
39422 47218
39422 79822
39422 162855
39422 51179
301574 165942
301580 74211
39438 412509
39439 86195
39443 100976
39444 53218
39444 51069
39464 100433
39464 159962
39464 208116
39464 52431
39464 54185
301622 94686
39493 151331
39493 178730
39493 387704
39494 99741
301641 128559
301649 205969
301653 80068
39515 315469
39515 99994
39515 119824
39522 61235
39522 82515
39522 332536
39522 120131
39522 338294
301669 45322
39535 452375
39546 136425
301695 250519
39581 413896
39580 416252
39582 48449
301738 141501
301744 101877
301747 57092
39612 217026
301767 57159
39628 62931
39631 67511
39632 52271
301780 89016
39655 141311
39667 67300
301822 56004
39732 140326
39734 138333
301879 329706
39737 127812
301884 236588
39752 67994
39752 79171
39752 233050
39752 94100
39752 124582
39752 79168
301914 119019
39782 371320
39782 50401
39782 107612
39782 62888
39786 313938
39786 434583
301935 68278
39797 51156
39802 139481
301947 80068
301963 40279
39820 252382
301971 142342
301974 49179
301983 58929
301984 389163
301988 158084
39853 98992
39874 46452
39874 41078
39874 204716
39874 117846
39874 46462
39874 96372
39874 168344
39874 117841
39874 132880
39874 342315
39874 158087
39874 158158
39874 79536
39874 139901
39882 39887
39889 214278
39889 248304
39889 315402
39889 205619
39889 210902
39889 137879
39889 208312
39889 153572
39889 82758
39889 365893
39889 191934
39889 210549
39889 163514
39889 215459
39889 240196
39889 429200
39889 253175
39889 358551
39889 157176
39889 385064
39889 436582
39889 213851
39889 189908
39889 89031
39889 183988
39889 49123
39889 423783
39889 241022
39889 311138
39889 159798
39889 211815
39889 103447
39889 95547
39889 249582
39889 136139
39889 451061
39889 41705
39889 176487
39889 110903
39889 240206
302042 69519
302053 137730
302056 52474
39920 75955
302076 68278
39943 107829
39959 321012
39959 229247
39959 68441
39959 157061
39959 76400
39959 408568
39959 351936
39959 104006
39959 346504
39959 112255
39959 418218
39959 221511
39959 442196
39959 55965
39959 344732
39959 428514
39959 420947
39959 107894
39959 194790
39959 144796
39959 333527
39959 350982
39959 218376
39959 87189
39959 442653
39959 177087
39977 41801
39977 69552
39977 69553
39984 94938
302162 69237
302177 198048
302177 68278
302187 351567
302193 210233
302213 68278
40079 214482
40093 216540
40093 73017
302240 169246
40108 115382
302256 68308
40116 97772
302271 354724
40128 334853
302287 76541
40150 401255
40150 429956
40150 68459
40150 184841
40157 78685
302303 256205
302303 68474
40160 212707
40164 97493
302310 119824
302338 68278
302338 112050
302351 112048
40208 323143
40208 376565
40208 86520
40211 62542
40214 352572
40214 101750
40214 188780
40214 376426
40214 108261
302363 95039
302365 158541
40224 130530
40224 370956
40225 337506
40225 248184
40225 217223
40225 340769
40228 56953
40251 378810
40251 401400
40251 90041
40251 354878
40251 396644
302396 117940
40261 63706
40261 310762
40261 122431
40261 90901
40261 69754
40261 342366
40261 124504
40261 101188
40261 129086
40261 363899
40261 412124
40261 325610
40266 251206
40266 161216
40268 43999
40273 57479
40273 218325
40273 176101
40273 355116
40273 169276
40274 90276
40274 71601
40274 359186
302422 68278
40279 404940
40279 314869
40279 334610
40279 424814
40279 379825
40279 407096
40279 139304
40279 99066
40279 157736
40279 364719
40279 415215
40279 138623
40279 125667
40279 168255
40279 410005
40279 359336
40279 102611
40279 434818
40279 90979
40279 362985
40279 407653
40279 305284
40279 387882
40279 111651
40279 161665
40279 429475
40279 411304
40279 453567
40279 183212
40279 100244
40279 227861
40279 141169
40279 249210
40279 399146
40279 253578
40279 375978
40279 335138
40279 198475
40279 361943
40279 407868
40279 52359
40279 244064
40279 389495
40279 432460
40279 102367
40279 61235
40279 230788
40279 317344
40279 251985
40279 223119
40279 390813
40279 413600
40279 342711
40279 256997
40279 57556
40279 73858
40279 83238
40279 383571
40279 353744
40279 368577
40279 367005
40279 200807
40279 391287
40279 400521
40279 102484
40279 432428
40279 98863
40279 238373
40279 369005
40279 167083
40279 410039
40279 387590
40279 393802
40279 170495
40279 365476
40279 419153
40279 401558
40279 354827
40279 322131
40279 441837
40279 342965
40279 323370
40279 310920
40279 377702
40279 407583
40279 107014
40279 341939
40279 120596
40279 338137
40279 358698
40279 311358
40279 327866
40279 360711
40279 322306
40279 212002
40279 425099
40279 213823
40279 354151
40279 425966
40279 157179
40279 371898
40279 118053
40279 250899
40279 354551
40279 417455
40282 319199
40282 179986
40282 56277
40282 117287
40282 252655
40282 369669
40282 116165
40282 102351
40282 307294
40282 410871
40282 128362
40284 70689
40290 354478
40290 185174
40295 408660
40295 126512
40295 432799
40295 117916
40295 247784
40295 196855
40295 454416
40295 53315
40295 128378
40295 56784
40295 83922
40295 85518
40303 116511
40303 370515
40303 171843
40303 183595
40303 157737
40303 57121
40303 186428
40303 143432
40303 56386
40303 48780
40303 323365
40303 413846
40303 163216
40303 324323
40303 361346
40303 184803
40303 213678
40303 398771
40303 374467
40303 233764
40303 92116
40303 119109
40303 394034
40307 189541
40312 116390
40312 99150
40312 406003
40312 394501
40320 375392
40325 205656
40328 377310
40328 361768
40328 57533
40328 311358
40328 396413
302486 54200
40366 54235
40366 245598
40366 109066
40366 52296
40366 43446
302581 89945
40447 81297
40455 40760
302635 61226
40492 135317
40492 40493
302647 200645
302661 43905
302664 184038
302687 59159
40544 68298
302702 229078
40566 433178
40598 94614
40607 222742
302755 70958
302769 427995
302769 187382
302769 359726
302769 56698
302769 396688
302769 368665
302780 56004
40658 112027
40658 107376
40658 66419
40658 255979
40661 79354
40664 125696
40669 182558
40676 240820
40690 127532
40695 82019
40695 75694
40699 381536
40699 359233
40699 439772
40699 429332
40749 99369
40749 84687
302894 157359
302895 68278
40756 48611
40780 338187
40780 57917
40788 211773
40788 52539
40798 125880
302943 51804
302946 73819
302950 172088
40812 41729
302977 167815
40837 183572
302981 59945
302981 147178
303002 44460
303006 175117
40886 115622
40886 372523
303035 250519
40894 142258
40896 142258
40897 142261
40910 137034
40916 239251
40970 183404
40971 109967
40972 166697
40972 142577
40980 79190
40991 401197
41004 92981
303149 90733
41006 127812
41011 167847
41011 59526
41011 224200
41086 93046
41086 419034
41100 436613
303250 68278
41130 330410
41131 338484
41131 102598
41131 317572
41131 380645
41132 44400
303279 303278
303279 303281
303279 241842
303279 254222
303287 122469
303289 335178
41147 66934
303316 129563
41179 41735
41179 205759
41180 50733
41193 171163
41214 209014
41214 212377
303379 98803
41239 94306
303434 79649
41315 237394
41315 401447
303460 125162
303460 113099
303464 452598
41329 241165
41339 155192
41340 200783
41358 132499
303505 95921
303517 164492
41383 433308
41383 204483
41383 402298
41383 430743
41383 338704
41383 369409
41383 378978
41383 417203
41383 319314
41383 337960
41383 320535
41383 386914
41383 228890
41383 357388
41383 400473
41383 365698
41383 352462
41383 424090
41383 428268
41383 400296
41383 424472
41385 65548
41385 69876
41385 100067
41385 328165
303529 134016
303533 222747
41390 51715
41414 231412
303569 60827
303574 95909
303575 68278
303577 68278
41440 109307
41443 100243
303611 187844
303645 83087
41502 100243
303670 57159
303676 329706
303678 69237
41537 42916
41539 50901
303693 128559
41552 141739
41554 241445
41554 114438
41554 141256
303704 62542
41566 46117
41566 181694
41566 354643
41575 228133
41603 91911
41604 117714
41616 73301
41637 163988
41668 132514
41673 58311
303818 50733
41674 160564
41705 195843
41705 206482
41737 83622
303887 154462
41746 117470
41755 61890
303918 68278
303922 243650
303924 92574
41792 67482
41796 66062
41796 185820
41796 442050
41796 41801
41796 395663
41801 69552
41808 52194
41810 242846
41810 220299
41810 132948
303960 203168
303973 101738
41828 98992
41842 70584
41842 169914
41842 51455
41854 45639
304001 250519
41864 49610
304009 75721
41883 99527
41883 61321
304037 328547
304037 250903
41894 113881
304040 56860
41928 360490
304074 68278
304076 68278
41944 74621
304109 47490
41968 92095
41968 335407
304113 69237
304128 433090
41991 81282
42012 52020
42022 183319
304175 140180
42041 69637
304190 120347
304191 408428
42051 210528
42064 78227
42064 215391
42064 74044
42069 128833
42069 47479
304213 397680
304215 354972
304219 55951
304225 359509
304229 47015
304239 63773
42097 193368
304251 433685
304261 350429
304278 53359
42150 42875
304302 68278
42166 90083
42170 42182
42169 255983
42169 64906
42177 66970
42177 157844
42177 85897
42177 49412
42177 66955
42177 315790
42178 344656
42178 90083
42178 238570
42178 52897
42178 42180
304324 128559
42180 52908
42180 127784
42180 238570
42180 42183
42180 96538
42180 383933
42180 151761
42180 107829
42180 84647
42182 234209
42182 53575
42182 68194
42182 407736
42182 83658
42182 160346
42182 408527
42182 139451
42182 325019
42182 177272
42182 156668
42182 78258
42182 416597
42182 170701
42182 146006
42182 189065
42182 444871
42182 217749
42182 202609
42182 205329
42182 346764
42182 223619
42182 447116
42182 110391
42182 115644
42182 315081
42182 412556
42182 429845
42182 175369
42182 407940
42182 161822
42182 86501
42182 88513
42182 307200
42182 247997
42182 346667
42182 78052
42182 51438
42182 50901
42182 81621
42182 448367
42182 60583
42182 166719
42182 80881
42182 228371
42182 65048
42182 403394
42182 153197
42182 249491
42182 67327
42182 150370
42182 255895
42182 386170
42182 116270
42182 449551
42182 166697
42182 103447
42182 48215
42182 160293
42182 45669
42182 241766
42182 69611
42182 100672
42182 344957
42182 247043
42182 175264
42182 245793
42182 78723
42182 95800
42182 81181
42182 68189
42182 144585
42182 57440
42182 313374
42182 129352
42182 253023
42182 321269
42182 237952
42182 195528
42182 212288
42182 208038
42191 54410
42221 235535
304370 68278
42233 54550
42233 156078
304388 122488
42287 74400
42287 191805
42287 259237
42287 59006
42287 195592
42287 201877
42287 105939
42287 399644
42287 69198
42287 161479
42287 238641
42287 48829
304433 54197
304435 60493
304443 123505
304469 121076
42366 112920
42370 149333
42373 46452
42373 206828
42380 159104
42380 151351
42380 443569
42380 134434
42380 254274
42380 170072
42395 83432
42401 108699
42401 123569
42401 440200
304549 75721
304563 71381
42419 97533
42422 407872
42477 95700
304623 71034
42480 42495
304629 69237
304631 159862
42485 72170
304712 89016
42582 87280
42585 227093
42585 397962
304745 55965
304764 68278
42626 213243
304790 54070
304790 59913
304794 125095
304799 68278
42655 118915
304805 326441
42688 43862
42689 167248
42691 409888
42696 50901
42710 91107
304855 426590
42711 129377
42715 99418
42738 99369
42741 166380
304904 341858
42762 42766
304911 157348
42765 180378
304952 57159
42825 103447
304984 69237
42850 48920
304996 68278
42863 52041
42875 51538
42875 226157
42875 121298
305023 254861
305053 106758
42911 125235
305059 198048
42916 140613
42916 352465
42916 132855
42922 69542
42922 430584
42922 118898
42922 366818
42922 340060
42922 109782
42922 83892
42922 352083
42922 60875
42922 74529
42922 351191
42922 192209
42922 414752
42922 349226
42922 203366
42922 94569
42922 354393
42922 399144
42922 60409
42922 313732
42927 114575
42927 305745
42927 416381
42927 324416
42927 180619
42927 367645
42927 141472
42927 203964
42927 335568
42927 135886
42927 448938
42927 184612
42927 316325
42927 172914
42927 414861
42927 356588
42927 409039
42927 165623
42927 424978
42927 391171
42927 175314
42927 94217
42927 415385
42927 324819
42927 359106
42927 325855
42927 259465
42927 330118
42927 136344
42927 64200
42927 433067
42927 433652
42927 61760
42927 401728
42927 144614
42927 158404
42927 356343
42938 205515
42939 353504
305086 106825
305088 305089
42950 81314
305110 250519
42966 51389
42973 138513
42973 94937
42999 150740
305146 112274
43014 93474
43062 183404
43073 99369
305220 68278
305247 68308
305273 106758
305282 55382
305288 68278
43157 175458
43160 396953
43160 395560
43160 382950
43159 57003
305307 258374
305311 89201
43197 49360
43197 172012
43197 64408
43202 411566
43201 120276
305412 142041
305413 50733
43276 449148
305424 363899
43285 43295
305439 68278
43333 120347
43342 109191
305526 67032
43387 43397
305533 327399
305533 305534
43391 43415
43397 176822
43397 87266
43416 440504
43416 446839
43416 161769
43446 63115
305634 95358
43500 66063
305653 175211
43515 422689
43515 255849
43515 89773
43517 395114
43517 217149
305667 57159
43534 57806
305679 312960
43540 193184
43549 389519
305695 72893
43569 164228
305714 251967
43582 54373
43594 47999
305739 245455
305739 305740
43597 174005
43597 98728
43597 192092
43597 160843
43597 111742
43597 400499
43597 192114
43597 98734
43597 211270
43597 315900
43597 221572
43597 85211
43597 449446
43597 221605
43597 443649
43597 51493
43604 194773
43620 72419
43632 235288
43633 67378
43643 436451
43643 224578
43643 415771
43643 200688
43643 116003
43643 243996
43643 210248
43643 146198
305797 47015
305808 305809
305811 182240
43671 307229
43671 146718
43671 186152
43671 112325
43673 119896
43673 348520
43673 229790
43673 91019
43673 438511
43673 452660
43673 165173
43677 72958
43677 165591
43677 54453
43677 107912
43677 305958
43677 366730
43677 176240
43677 402341
43677 62726
43688 66682
43701 418131
43701 305873
43701 309050
43701 360506
43701 239602
43701 43705
43701 117034
43717 388191
43720 86471
43720 136521
43720 67624
43720 126994
43720 307200
43723 244216
43723 187247
43723 226536
43723 356951
43723 258932
43751 50824
305898 60651
43777 64906
305926 319463
43785 45847
305930 179677
305930 68298
43793 177627
43793 64511
43793 117221
43793 105090
43793 155588
305947 57541
305966 99369
43833 91115
43851 328978
43851 91502
43851 68679
43852 79956
43852 92034
305997 65097
43862 231694
43862 145950
43864 136807
43864 86532
43864 374508
43870 85990
43872 92785
43872 44145
43872 50901
306019 84134
43876 88325
43876 203628
43875 223079
306020 59542
43905 257376
43905 150142
43905 145458
43905 126347
43905 331372
43905 191049
43905 187855
43905 419342
43905 183949
43905 399690
43905 101745
43905 360949
43905 317223
43913 103669
43926 66498
43926 44025
43944 55965
306131 89016
306141 113099
44003 122619
306149 60021
306155 230569
44019 167690
44019 130420
44019 99985
44019 99103
44019 229589
44019 99168
44019 113027
306171 250519
306185 70661
44041 381486
306196 68281
44058 75958
44065 77656
44065 77653
44085 91747
306238 194668
44101 184371
306264 166096
44128 391020
44130 91115
44134 145910
44134 173993
44135 108608
44139 53418
306316 51757
44172 131413
44175 99753
44176 208322
44176 232812
44176 181922
44176 171760
44183 110438
44183 374516
44183 75794
44183 131554
44183 47010
44183 137881
44183 48920
44183 108272
44204 117449
44210 67501
44210 73729
44233 47558
44243 142116
44243 405836
44243 105979
44250 113223
44250 81649
44251 77311
306396 128559
306409 75772
44283 72071
44290 47759
306437 129563
306440 129563
44325 126375
44328 105843
44339 65141
44345 70958
44348 64830
44355 112503
44368 129204
44368 87232
306515 49685
44371 160932
44371 358986
44371 352559
44371 342140
44371 214671
44371 393398
44371 89557
44371 202115
44371 231559
44375 134595
44378 145987
44378 195019
44378 49035
44379 88171
44394 346335
44400 143658
44404 188700
44443 76050
306588 68278
44452 72743
44452 59315
44452 50316
44457 384788
44459 90986
44459 119547
44459 78481
44460 391690
44460 101253
44467 377082
44469 196989
306620 64320
306629 50647
44501 103674
44501 358708
306654 174812
44515 59853
306659 109083
306675 54030
44539 50679
44540 50679
44548 93888
44552 99369
306699 306700
306722 357592
44586 64803
44596 137031
44613 97573
44613 48822
44613 185329
44613 73860
44613 125611
306769 214018
44634 177646
44648 195128
44648 44649
44652 74014
44652 103751
306798 68278
44657 178150
44660 67802
306815 59945
44675 245083
44683 90390
44692 59541
44695 105491
306842 66278
306879 150526
44736 450131
44736 180226
44736 357839
44736 183992
44736 456105
44736 359237
44745 50708
306900 68702
306915 68278
44771 55387
306933 68278
44795 186456
44795 240272
44827 145117
44834 74305
44834 79933
44834 163894
44834 79931
44834 174001
44847 338138
306994 65644
44861 192371
307011 319714
44869 239497
44869 163853
44869 398931
44869 421616
44869 392259
44869 421821
44869 118240
44869 151137
44869 424971
307033 173848
44918 83485
44918 202372
44918 129556
44918 46596
44925 95547
307071 69891
307083 211430
44945 59571
307099 114032
44957 59287
44959 131108
44963 79022
44963 58997
44983 44988
44983 424699
44984 116749
44988 47821
44992 47821
307138 80257
307143 68278
45003 337877
45003 45008
45006 53598
45006 74561
45006 55019
45006 421820
45006 46295
45009 57105
45009 354658
307191 337495
45069 181565
307224 311610
307226 178192
45082 94362
45082 232268
45082 84083
45106 84172
45114 49269
307263 111447
45137 124476
45137 442916
45137 84440
45137 219009
307303 95905
307354 375603
45220 74014
307364 78498
307364 126429
45250 128692
307406 307409
307421 186273
307421 69237
45287 109732
45287 45292
307452 331657
45309 121742
307459 428709
45322 49179
45322 371512
45322 208788
45322 425534
45322 396863
45322 354229
45322 59733
45322 80861
45332 141466
45350 178100
45350 158956
45350 76311
45359 115382
45364 50901
45365 47596
45376 45395
45377 154005
45391 52286
45391 51886
45391 91688
45391 61944
45391 65780
45395 230991
45395 72458
45409 59893
307556 370448
307561 255353
307561 207570
307591 158215
45451 116323
45481 167909
45510 55214
45514 47793
45516 76983
45526 101932
307672 235605
45533 200858
45533 120374
307681 404491
45561 183181
307716 68278
45594 329175
307766 50901
307774 307775
45635 92744
45639 45640
45657 388073
45667 54550
45680 211223
45680 124257
307827 215575
45686 87569
45697 54562
45697 47997
45697 160247
45697 104625
45702 75797
45714 91162
307881 106800
307896 54550
307911 46992
45777 67032
45796 314994
307941 89016
307942 122469
45799 155088
307949 198048
45843 219634
45857 224605
308031 308032
308053 308054
45924 99311
45924 106122
308073 250841
308091 198048
308093 68278
45961 200332
45961 132441
45961 47681
45961 453572
45963 142005
308111 116405
45993 151666
308140 336634
308147 106825
308160 332366
308172 63856
46058 146356
46058 172747
46058 70037
46078 132044
46108 359851
46108 67560
46112 178091
46117 212482
46117 162982
46117 71800
46117 137031
46117 218309
46117 261259
46117 215055
46117 81367
46117 354643
46117 125855
46117 55443
46117 84902
46117 189704
46117 221491
46117 103447
308282 61948
308286 174154
46152 64190
308299 198048
308323 63741
46181 454662
46181 348282
46181 204568
46181 437767
46181 184047
46181 197820
46203 154528
46204 332839
46208 253471
308363 177430
308386 326663
46265 110903
46284 103790
308435 243198
46313 73441
46313 82041
46328 416134
46328 187289
46328 80944
308477 69237
46345 178192
46343 248829
46378 73669
46378 121428
46378 357947
46378 152620
46382 60035
46395 47015
46399 60379
308556 141501
46433 47844
46434 123679
46458 232950
46464 50552
46464 50679
46510 93051
46510 141776
46517 256912
46521 61211
46521 88402
46526 448301
46526 383050
46526 444886
46526 249170
308672 256978
46528 128541
46544 356406
308701 197140
308701 75365
308702 75365
308702 197140
308705 59945
308706 352712
46581 56684
308735 218997
46612 312610
46612 130251
46616 59287
46617 61625
46617 219729
46635 56182
308779 308780
308779 354182
46637 345060
46637 320876
46658 68573
46664 89459
46669 206875
46669 104732
46669 346821
46669 316911
46669 87333
46669 339659
308840 63763
308840 58028
46705 85218
46708 106089
308854 75365
308857 257992
46722 183437
46728 320907
308875 68278
46792 55407
46795 159818
46803 104215
308951 85599
308957 338312
308961 57159
46844 86520
308991 116788
308993 308994
46871 123147
46882 178923
46882 124314
46882 151475
309027 140713
309043 322204
46897 68240
46936 70117
309086 176415
309092 68278
309105 361175
309105 102451
309105 309115
309108 119544
46966 386126
46982 123521
46982 209956
47015 64729
47015 78127
47015 227864
47015 99038
47015 311879
47015 57951
47015 337866
47015 366404
47015 64987
47015 72763
47015 243237
47015 351874
47015 163221
47015 71601
47015 319841
47015 50330
47015 54343
47015 368916
47015 193626
47015 394651
47015 412668
47015 76365
47015 63289
47015 118523
47015 75527
47015 117924
47015 381324
47015 397696
47015 211766
47015 387534
47015 394769
47015 159597
47015 396240
47015 152620
47015 116126
47015 170073
47015 342291
47015 160517
47015 211717
47015 344542
47015 339819
47015 54359
47015 235473
47015 131859
47015 60035
47015 375002
47015 106621
47015 118527
47015 50311
47015 69127
47015 87987
47015 78527
47015 328882
309164 68278
309168 95905
309176 334817
47040 54856
309199 446005
309218 309219
47075 52296
47098 348486
47103 91165
47124 137529
309276 106825
47136 83432
309293 198048
47159 59894
47159 56210
47168 49179
47168 57105
47178 205910
309334 68278
309342 156116
309342 57105
309373 113638
47235 131262
47242 427373
47243 54550
47245 103883
47245 92589
47245 93120
47261 163174
309444 68702
309470 62542
309486 436571
47360 99369
309521 62215
309521 111756
309526 49179
309528 184697
47390 387855
47390 127092
47409 115917
309581 331780
47465 53966
47465 136683
47465 108383
47468 132585
47470 85424
47470 92175
47470 181982
47470 58239
47470 145707
47470 86357
47470 67215
309618 60695
47477 69611
47490 225261
47490 337504
47490 415316
47490 208214
47490 106555
47490 339584
47490 388060
47490 107294
47490 387825
47490 346662
47490 393746
47490 388317
47490 385071
47504 47519
47507 150525
47519 121845
309694 361503
309696 68278
47560 164526
309738 61978
309744 194806
309761 329706
47626 165201
47626 258970
47626 182827
47626 157666
47626 86640
47626 325612
47626 127163
47626 242569
309772 57541
47628 60888
309778 68278
47645 182903
47647 177272
309808 51715
309809 49179
309809 51715
47666 347603
47666 187441
47666 238909
47666 175283
47666 213868
47666 376258
47666 255249
47666 346548
47666 329401
47666 174802
47666 182014
47666 163825
47666 409699
47666 257094
47666 155612
47666 399813
47666 372746
47666 61797
47666 436283
47666 355203
47666 198941
47666 246104
47666 180036
47666 428336
47666 315402
47668 72158
309815 350856
47695 158370
47695 456072
47696 90985
309847 260387
309852 309858
47745 156489
47756 260817
47756 382193
47756 441151
47756 413591
47756 385269
47756 206629
47756 159496
47756 421545
47759 455084
47759 108134
47759 428306
47759 230063
47759 213868
47759 184186
47759 80101
47759 143543
47759 54064
47759 140981
47759 238524
47763 65583
309913 71381
47769 105075
47770 218643
309916 387610
47807 132385
47809 92039
47809 120057
309954 122488
47821 219221
47821 119964
47821 135262
47821 238583
47821 76367
47821 388579
47821 63275
47821 215936
47821 364921
47821 116598
47821 70423
47821 58552
309968 119572
47824 334930
47824 65245
47824 102373
47824 102358
47827 331341
47827 317027
47829 401906
310020 385477
47885 103447
47885 193713
47885 63372
47890 248818
310048 68758
310069 54794
310080 57105
47940 178353
47953 89046
310099 240450
47966 261748
47974 188070
47974 139883
47974 257888
310124 89012
310130 333562
47987 52926
47998 64906
47998 95124
47998 150202
47998 129142
310159 60695
310172 51757
48039 50901
48039 68351
48045 51387
48057 132647
48070 386123
48070 63856
48070 357261
48070 260788
48070 336788
48070 359534
48070 365924
48070 340422
48070 359871
48070 244042
48070 157707
48070 407731
310217 97963
48099 402866
48099 406653
48101 59947
48132 160761
48150 175729
48159 88804
310324 198048
48192 394389
310362 50901
48229 323143
48276 92785
48277 55521
310423 396690
48281 98645
48299 100554
48309 122806
48313 72181
48313 144328
48327 223473
310491 310492
310497 68278
310527 215618
310559 205985
48416 76528
48445 88712
310615 99369
310638 79653
310641 146612
310651 57136
310651 117882
310656 198048
310656 95905
310656 75362
310656 122469
48532 379130
48532 427023
48532 215410
48532 180479
48532 162224
48532 200046
48532 158559
310683 446471
48550 69914
48552 175875
48552 89451
48552 388720
310736 68278
48605 48608
48638 454249
48656 250355
48656 253878
48656 78687
48656 183160
48656 423044
48656 368888
48662 116553
48665 110090
310826 56385
48683 89451
48683 313099
48683 174006
310835 66890
310853 179257
48723 84530
48737 311863
48746 52908
48746 90083
48757 389618
310920 82268
48779 60597
48780 71325
48789 81163
48799 438719
48808 409209
48808 409523
48808 54892
48808 432556
48808 247847
48808 258268
310962 76619
48829 71783
48842 199543
311018 57159
48899 67830
48899 124266
311049 54197
48915 146235
48915 245465
311064 74906
48920 176522
48920 81105
48920 374516
48920 75797
48920 93051
48920 89844
48920 102082
48920 99018
48920 87377
48920 215299
48920 125074
48920 186674
48930 66746
48930 138280
311096 311097
311098 81235
311098 124821
311104 60379
311121 58744
311122 116388
48996 77350
49023 321283
49035 205225
311184 58741
311222 75846
49079 241566
311226 59159
49095 110874
49095 58275
49120 158036
311267 359726
49123 315402
49123 209683
49125 372897
311296 118313
49165 53467
49169 211758
49171 353729
49171 252653
49171 117882
49171 116390
49178 385145
49178 323806
49178 175201
49178 250311
49178 441265
49178 138676
49178 392145
49178 431126
49178 183670
49178 382352
49178 397923
49178 53016
49178 437324
49178 209540
49178 440268
49178 407243
49178 249981
49178 83787
49179 121785
49179 58074
49179 116323
49179 313311
49179 157737
49179 116890
49179 140647
49179 60035
49179 69891
49179 394689
49179 328173
49179 93027
49179 182158
49179 62168
49179 420411
49179 208863
49179 326051
49179 444383
49179 384253
49179 354883
49179 339819
49179 178688
49179 341232
49179 388923
49179 384524
49179 98762
49179 211761
49179 50349
49179 71393
49179 373119
49179 95081
49179 402391
49179 216281
49179 71387
49179 386123
49179 344529
49179 388467
49179 62195
49179 187321
49179 442314
49179 357473
49179 333931
49179 59905
49179 66622
49179 339621
49187 367485
49187 200700
49219 164024
49260 178353
49273 70973
49274 131769
49274 347170
49280 99201
311485 57105
49370 99369
311530 444781
311530 440639
311530 444751
49388 95142
311533 325624
311550 68278
49407 49433
311552 260461
49415 62680
311570 114874
311573 113315
311575 59542
49434 52135
49434 52908
49434 90083
49434 52897
49433 52590
49433 64087
49433 243524
49433 441222
49440 78307
49440 61692
49440 196869
49440 436099
49440 164830
49440 147871
49440 50528
49440 150988
311589 250519
311596 228406
311631 95921
49498 140573
311667 311668
49540 341299
49540 454873
311690 61118
49551 185213
49551 114337
49551 121884
311703 101738
49567 328953
49567 86463
49567 220797
49567 384924
49565 166718
49573 171704
49586 53526
311733 66111
49592 193988
49592 198672
49592 246829
49592 350463
49592 353627
49592 320213
49592 50531
49592 58392
49592 102948
49592 207462
49602 49604
311751 57541
49610 52891
49610 52908
49610 207396
49610 52897
311758 63327
311773 311774
49638 131167
311815 52474
311828 68278
49685 353283
49685 54365
49685 136625
49685 57105
49685 59893
49685 207915
49685 364166
49685 100071
49685 446079
49685 87987
49685 120612
49685 230370
311833 75362
49695 71542
49695 58053
49695 61099
49710 315496
49715 52469
49716 240155
49750 257381
49750 142522
49750 133947
49750 236275
49750 242619
49750 64696
49772 203837
49781 220625
49819 61978
311977 195804
312005 359780
312035 54550
49904 113099
49940 217814
49940 413070
49940 106103
49940 405356
49940 168494
49940 246137
49940 248909
49948 77459
49981 122008
312133 96883
50003 77165
50008 352981
50012 61967
50013 177392
50023 60945
50026 108054
312172 312173
312185 245707
50055 334056
50059 69634
312247 60035
312267 179500
312267 68278
50139 221364
50139 90858
50139 61863
50139 158421
312313 72743
312316 55951
50177 54338
50184 385735
50197 410866
50200 255473
50200 426430
50200 53944
50202 221491
312349 193822
312349 145278
50228 134319
50228 57297
50228 55965
50233 86147
50233 57931
50233 101242
312378 198048
50235 81405
50241 71948
312377 68278
312384 198048
50244 50268
50244 50276
50244 136629
312385 369683
312406 70958
50265 79024
50265 359301
50265 52704
50265 80437
50275 142123
50275 157735
50275 104057
50275 59905
50275 176522
50276 138585
50276 138631
50276 105004
50276 138581
50286 121428
50286 176166
50289 100071
50299 197680
50299 236990
50299 312941
50299 389793
50310 50339
50310 119646
50310 213678
50310 389377
50311 59945
312457 57105
50338 142519
50338 71079
50338 230452
50340 71298
50341 185242
50341 200576
50347 245445
50349 64993
50349 57105
50360 117882
50367 186799
50382 75515
50382 58008
50401 258963
50405 50942
50434 204290
50434 256772
50434 374771
50434 366196
50472 50482
50472 55146
50472 66587
312622 63773
50485 428405
50530 58376
312678 68278
312682 361625
312689 68278
50546 149863
50548 50647
50552 50679
50563 249322
312709 144201
312714 106825
312726 68278
312738 98931
312749 124002
50620 60739
50647 62656
50670 89844
50676 112855
50676 50682
50679 190347
50679 133684
50679 326077
50679 200693
50679 323625
50679 183991
50679 145104
50679 84859
50679 133502
50679 124838
50679 138665
50679 50689
312827 116683
312851 68278
50708 79560
50708 178195
50708 89869
50710 223875
312862 406719
312862 370446
50733 253576
50733 383966
50733 247225
50733 336235
50733 72133
50733 84314
50733 68189
50733 158683
50733 179084
50733 136898
50733 89655
50733 135105
50733 255487
50733 53672
50733 346587
50733 205567
50733 60899
50733 442491
50733 101246
50733 52272
50733 147967
50733 80649
50733 318780
50733 97290
50733 205620
50733 409749
50733 216845
50733 123064
50733 182594
50733 332165
50733 87711
50733 118923
50733 105956
50733 81707
50733 372389
50733 125510
50733 79447
50733 93819
50733 142939
50733 181797
50733 135106
50733 72173
50733 247440
50733 53696
50733 115853
50734 139304
50734 437837
50734 408623
50734 412993
50739 50901
50742 100067
50755 247209
50769 367647
50769 55951
50769 349645
50770 138412
50770 52329
50770 138632
312941 257759
50816 126995
50816 145439
312964 68278
312977 75362
313002 147178
313005 147178
50879 347914
50899 201187
50901 94058
50901 136845
50901 392469
50901 89751
50901 202368
50901 358552
50901 144658
50901 80440
50901 51274
50901 164136
50901 76772
50901 120481
50901 57929
50901 58032
50901 228672
50901 56449
50901 98459
50901 100732
50901 120630
50901 138762
50901 163451
50901 144136
50901 130290
50901 236316
50901 330305
50901 156529
50901 71311
50901 314805
50901 163526
50901 53575
50901 92145
50901 78427
50901 149413
50901 231694
50901 192458
50901 66750
50901 140672
50901 144131
50901 81105
50901 72526
50901 124628
50901 404043
50901 230639
50901 221234
50910 56333
50910 88670
50934 55443
50942 191104
50971 111799
50984 64507
313140 257874
313145 79649
313149 110005
313178 128559
51038 104873
313189 100235
51047 55146
51076 257334
313227 88804
51099 170517
313245 66897
313247 250519
313256 62542
313259 216056
51181 89784
313323 104802
51194 98626
51202 69387
51215 217121
51215 216430
51215 183185
51215 404281
51216 98706
313374 110903
313373 103447
313391 65215
51259 59784
313426 215589
313439 65097
51310 70225
51329 232316
51334 170596
51337 53028
51351 57090
313507 206196
313516 334460
313520 69781
313535 338884
313556 400101
313570 89784
51445 112143
51449 240450
51459 113099
51459 450199
51459 103870
51459 381541
51466 447203
51466 456322
51466 221018
51466 359473
51466 438219
51516 89462
313665 153679
51526 106306
313677 140713
313684 313691
313688 56840
51558 51559
313717 96883
313721 54200
51578 366324
313726 377918
313741 120348
51606 206866
51606 148951
51606 145288
51606 161439
51611 223406
51673 154445
51673 165556
51673 167987
51692 67894
51704 59234
51704 99088
51704 71538
51704 325376
51704 59356
51704 349997
51704 79054
51704 327298
51704 62580
51704 95216
51704 116687
51704 102511
51704 65251
51704 57978
51704 65269
313849 89016
313853 79653
51712 116632
51714 57269
51715 102366
51715 329332
51715 235422
51715 225539
51715 208562
51715 56757
51715 118822
51715 140244
51715 71277
51715 196228
51717 59945
313872 111093
51731 361205
51731 340782
51731 101467
51731 108054
51731 76618
313886 59945
51744 138522
51752 92326
51752 73829
51753 103931
51755 421171
51755 249693
51755 127326
51757 96845
51757 366629
51757 106056
51757 214233
51757 131599
51757 193159
51757 419693
51757 406139
51757 236911
51757 367547
51757 430156
51757 330909
51757 350327
51757 248394
51757 323931
51757 169744
51757 321818
51757 247680
51757 377545
51757 105199
51757 337935
51757 153600
51757 245188
51757 229549
51757 340770
51757 241319
51757 408848
51757 201426
51766 177420
51766 245084
51767 214504
51767 358551
51767 144303
51767 53966
313920 62542
51812 74812
51816 93199
51843 127674
51848 81405
51849 81611
51849 70301
314000 198048
51882 396997
51886 96428
51886 90238
51886 191790
51891 132585
51896 147482
51898 177201
51902 87450
314066 159358
314088 95905
314088 198048
314157 68702
314161 58028
314161 54794
52018 183132
52018 141781
52020 241120
52026 375299
314183 132586
52044 112454
52047 348152
314212 124534
314228 57105
314229 323640
314258 121023
52127 422386
314271 127481
52135 52926
52136 63138
314296 98138
52195 107804
52200 250019
52200 151383
52200 117681
52200 107651
52200 143543
52200 130772
52200 98821
52200 238489
52200 250365
52200 211310
52200 140613
314347 52474
314347 56756
314365 104326
314371 314372
314374 55471
314413 89926
314420 95921
314431 76165
52293 61784
314442 68278
314448 326810
52329 320464
52329 138412
52329 78992
52329 59406
52329 116169
52329 63793
52335 99741
52335 340416
52335 69744
314491 105722
52350 328165
52350 255036
314495 52469
314498 198048
52358 233523
314507 76071
52387 227765
52399 225698
52414 451294
52417 342688
52417 225646
52420 52502
52425 388188
52469 329704
52469 124086
52469 442462
52469 345219
52469 257206
52469 136343
52469 89485
52469 119203
52469 123832
52469 112974
52469 251383
52469 354152
52469 131274
52469 330024
52469 330954
52469 71221
52469 324653
52469 352650
52469 411061
52469 116639
52469 408776
52469 147417
52469 124763
52469 63454
52469 451333
52469 387142
52469 105164
52474 255316
52474 436104
52474 365239
52474 324978
52474 316941
52474 440319
52474 366492
52474 371778
52474 334364
52474 221357
52474 119113
52474 367526
52474 402082
52474 206333
52474 409378
52474 333206
52474 412828
52474 416288
52474 402031
52474 410924
52474 65549
52474 222184
52474 385424
52474 412268
52474 240034
52474 177733
52474 410307
52474 235279
52474 377325
52474 337906
52474 407812
52474 348807
52474 197511
52474 369007
52474 184040
52474 402493
52474 129246
52474 342425
52474 343526
52474 434853
52474 344449
52474 207570
52474 131102
52474 445069
52474 357473
52474 454740
52474 149002
52474 139304
52474 201081
52474 243496
52474 405938
52474 370090
52474 369451
52474 389991
52474 418709
52474 388436
52474 409849
52474 379291
52474 143714
52478 56262
52482 375717
52487 57469
52496 228509
52502 405674
52502 338163
52502 241878
52502 128506
52502 190566
52508 128256
52508 448609
52508 415966
52508 108793
52508 153557
52508 104971
52508 224948
52508 108796
52510 104319
52510 202680
52510 117902
52523 222810
52523 135918
52545 340938
52568 204798
52568 377303
52568 452611
52579 192910
314730 116780
52593 52908
52605 366634
52605 337098
314782 102427
314784 79649
52645 55382
52665 53504
52665 92741
52676 66085
314825 142408
314842 85028
52719 136680
314866 65331
52735 62542
52742 447570
52742 213228
52743 172909
314892 186182
314905 68278
52775 177709
52797 144588
314943 141710
314943 53315
52813 318237
52841 409039
52847 52848
52848 55242
315011 196776
52868 105638
52888 205599
52889 52908
52893 66469
52897 90083
52905 155414
52908 90083
52908 137355
52908 203778
52908 167851
52908 191956
52908 96538
52920 241222
52920 393746
52920 61158
52920 375490
52920 126380
52920 259408
52920 430212
52932 107274
52940 404970
52947 82826
52959 252801
52959 256100
52959 94212
52959 58054
52959 112097
52959 252831
52959 58083
52959 359271
52959 58087
52969 227763
52972 421873
52972 66983
52972 321078
52972 354688
52972 125599
52972 241211
315144 68278
53005 64277
53015 123911
315161 368977
315161 238343
53019 351272
53019 53033
53019 451375
53023 139236
315195 157359
53062 129960
315207 68278
315216 68278
53100 63931
315247 106758
53113 59713
315257 214806
315277 66597
53135 169020
53135 241036
53135 172686
53135 182002
53135 233227
53135 441563
53135 198094
53135 384415
53135 427121
53135 241127
53143 104567
53143 81405
315296 260697
53173 56851
53193 56725
53203 128559
315357 68278
315359 98931
53216 60035
53222 87321
53222 394821
53222 244709
53222 98905
53222 113031
53222 99083
53222 53346
53222 68758
53222 56449
53222 56447
315375 371614
315378 109825
53263 77562
315411 68278
53285 344013
53285 57990
53285 354379
53285 99596
53285 57105
53316 449700
315462 62209
53356 380110
53356 53361
53356 213834
53359 82674
53359 102110
53359 111187
53359 53372
53359 432542
53364 141868
315509 198048
53373 400092
53380 101794
53385 64729
315581 260502
53438 59984
53445 53447
315589 68278
53472 56262
315620 67032
53481 69740
53482 175211
53501 362807
53504 119819
53504 123515
53504 61545
53504 238715
53504 345675
53504 126999
53504 236854
53514 418656
315658 68278
53518 94209
53526 358764
53542 230165
315697 86813
315706 75721
315711 197754
53575 110903
53575 121423
315720 353510
315730 68278
315747 67032
53603 72779
53606 57105
315754 69237
53636 142986
53642 53738
53642 53653
53648 184438
53651 53726
53661 53801
315810 88999
53671 93816
53671 142963
53671 142957
53671 438295
53671 79441
53671 150756
53696 177232
53696 172347
315864 250519
53741 79423
53741 118101
53741 378330
53741 209101
53741 332303
315885 329031
315885 323340
315887 58028
53746 119805
53749 118102
53763 53781
53763 143224
53763 79444
53765 202089
53765 225195
53765 53875
53766 181690
315909 358050
315909 386020
53780 53801
315927 382207
53789 126212
53797 118619
53797 413812
53797 53835
53797 202089
315943 68278
53801 143006
53801 155151
53801 143027
53801 174974
53801 142948
53801 53820
53801 443829
53801 326763
53801 213757
53801 200938
53801 53804
53801 142988
53801 53865
53804 222338
53804 141051
53804 228564
53804 200938
53806 142811
53806 248173
53806 79441
53806 143000
53806 183634
53806 183648
53810 53828
53810 206733
53811 142939
53811 142856
53815 53839
53817 216342
53817 372097
53817 79487
53817 411046
53817 174967
53817 387227
53817 431874
315965 315966
53821 385264
315969 68456
53827 147528
315974 224148
53831 213760
53831 443113
53831 142873
53831 190595
53831 183648
53833 85122
53833 80272
53833 109556
315976 58560
53845 93834
316011 62215
53878 118619
53889 130970
53900 73189
316061 76071
53920 184917
53920 90195
53920 113779
53920 406156
53920 163189
53920 251275
53920 260454
53935 256364
53937 207277
53937 208167
53941 138174
53950 121397
53966 167593
53967 110903
53967 86520
53968 106209
53977 92015
53991 367499
53991 206029
53991 343168
316137 327620
54021 328433
54021 429379
54021 388522
54021 209772
54021 422881
54021 342949
54021 391358
54021 121021
54030 153043
54030 116829
54030 74624
54030 117398
54030 189797
54030 90998
54030 390097
54030 95343
54030 378744
54030 146451
54030 414500
54030 352521
54033 63750
54034 119067
316183 62542
316187 115155
54045 413287
316199 377208
54064 204932
54064 338445
54066 90962
54066 71311
54070 110604
54070 71311
54072 70037
54081 192435
54081 447278
54081 126155
54090 104734
54090 406511
316234 241308
316238 68278
54094 203344
54094 91165
54094 193181
54094 241674
54094 196578
54092 93051
316252 128559
54111 212144
54113 232067
54119 117470
316263 198048
54139 59160
54147 401116
54197 360908
54197 399959
54197 348485
54199 69288
54200 325047
54200 366754
54200 351169
54200 363258
54200 416296
54200 104142
54200 203419
54200 355801
54200 375320
54200 245338
54200 354571
54200 449587
54200 83359
54200 344362
54200 348092
54200 406834
54200 372340
54200 109634
54200 383669
54200 123826
54200 443686
54202 76165
54202 110903
316361 85599
54221 66890
54229 74786
54229 353674
54229 403371
54229 104919
54229 382931
54229 210919
54229 368361
54249 197829
316430 330178
54290 54306
54290 119561
54290 217656
54333 82383
316480 55965
316483 132002
54343 65026
316491 67998
316501 148928
54367 63765
54369 99763
54380 208863
316531 134592
316576 95921
316579 95921
54445 67681
54453 97056
54483 259692
54506 91177
316658 68278
316662 316663
54521 55231
54550 216961
54550 258354
54550 196184
54550 323710
54550 82337
54550 225967
54550 94839
54550 153078
54550 336843
54550 142348
54550 202249
54550 449120
54550 126902
54550 137407
54550 192813
54550 64143
54550 430153
54550 447878
54550 166892
54550 381913
54550 185064
54550 154535
54550 326757
54550 91615
54550 319217
54550 79927
54550 417326
54550 378851
54550 172229
54550 136309
54550 229137
54550 221323
54550 220355
54550 388308
54550 144978
54550 170070
54550 82338
54552 340669
54552 216778
54552 223080
316728 318042
316763 442622
316812 159197
316817 95921
316817 68278
316822 434540
54679 347294
316826 253140
316840 67164
316849 192122
316849 88409
316849 100870
316849 160853
316906 59945
54783 120212
316936 186881
54794 62017
54794 430361
54794 232766
54794 365327
316945 406509
54817 375708
316967 57159
316971 77656
316971 63667
316981 347494
54838 247661
54838 100273
54844 207722
54852 418589
54852 100273
54856 456035
54856 112391
54856 141679
54856 79249
54856 211091
54863 255888
54863 165401
54863 348585
54863 71427
54863 92793
54863 417285
54863 244845
54863 57147
54863 369894
54863 393010
54863 386471
54863 412983
54863 169947
54863 391257
317014 433454
317032 58095
317034 99084
54891 216796
54892 225403
54892 174148
54892 182571
54892 247847
54897 60591
54903 69589
54903 231916
317064 198048
54924 230430
54928 62542
54931 123714
317076 336937
317078 157359
317079 203735
317103 198048
317109 64835
54986 61039
317147 371820
317184 345398
55050 317930
317244 67950
55105 65917
317272 68308
55134 170871
55151 69975
55151 348870
55151 68758
55151 321945
55151 178415
55151 230300
55151 122368
55151 61588
55152 168255
55152 185149
317306 124163
55168 199648
55175 138717
317332 163140
55194 434174
317347 68278
317369 120159
55233 65411
55242 101750
55242 120134
55242 186449
55242 170295
55248 135098
55256 76873
317418 124745
55280 164688
317437 230557
317437 373433
55326 176830
55372 153846
55382 114365
55382 103059
55382 158882
55382 93417
55382 248542
55387 180332
317532 68474
317533 91115
317539 257669
55401 254631
55407 226421
317578 211323
317586 317587
317597 221190
55462 113099
55465 91434
55471 162899
55471 404805
55471 227765
55471 332429
55471 391409
55471 101347
55471 159894
55471 357728
55471 375708
55471 418583
55471 383333
55471 176668
55471 106983
55471 261126
55471 370881
55471 321493
55471 76637
55471 132648
55471 338142
55471 335492
55482 74912
317634 141501
317636 68308
55502 83432
317664 78808
55521 95875
55521 153414
55521 103439
55535 156245
55539 81405
55539 213868
55539 67504
55539 242802
317695 69237
317707 214871
55564 102591
317716 371139
317716 244105
55597 183327
317753 144544
55615 55619
55617 120374
55619 104636
55620 109191
55627 101214
55632 62918
317777 68278
55668 217996
317836 116683
55715 71722
55725 74288
55761 171163
317931 67032
55789 73471
55816 122876
55816 108383
55831 441450
55846 91283
55858 103445
55864 128179
55879 418642
55879 160094
55879 195066
55879 93039
55879 333750
318042 198866
318042 134221
318042 133445
318042 355663
318042 351612
318042 355662
55902 188032
55902 229823
55904 109944
55904 126979
318070 318069
55935 191049
55940 68524
55940 140797
55941 104904
55951 454593
55951 57105
55951 432460
55951 193928
55951 343670
55951 433591
55951 322010
55951 352631
55951 358702
55951 402189
55951 128894
55951 192341
55951 179386
55951 70814
55951 355037
55951 376092
55951 102537
55951 324476
55951 411490
55951 360943
55951 366395
55951 355114
55951 347193
55951 389483
55951 444823
55954 58733
55955 69891
55955 102478
55955 339727
55955 186797
55955 406807
55955 108151
55955 61550
55955 63477
55955 157735
55955 128419
55955 195653
55955 206726
55955 454958
55963 123928
55964 396240
55964 56815
55964 322369
55965 86905
55965 143091
55965 344879
55965 389354
55965 78133
55965 134539
55965 136629
55965 88263
55965 328406
55965 154653
55965 107894
55965 65554
55965 251204
55965 387399
55965 381435
55965 157707
55965 145303
55965 367671
55965 336017
55965 394678
55965 186797
55965 168249
55965 69127
55965 208863
55965 145438
55965 116743
55965 248159
55965 62195
55965 333518
55965 211759
55970 371630
55970 159303
55970 331432
318121 68278
318121 393278
318121 197140
55982 113099
56004 138819
56004 252539
56004 394252
56011 65641
56011 419899
56025 82496
56036 182525
318182 203624
56043 56049
318224 95905
318237 356681
318237 196747
56095 210458
56119 183192
56128 109479
318276 59945
318290 212288
318290 67624
56184 111308
318329 360874
56195 126544
318340 115382
56203 60662
56210 363901
56210 133838
56210 336930
56229 224190
56229 353013
318375 58028
318382 60490
318393 57105
56262 94214
56262 256237
56262 72493
56268 80247
56276 76561
318426 68278
56294 94632
56304 210746
56304 133137
56304 65932
56308 130668
56308 220242
56312 121506
56319 127795
56333 182011
56357 95621
56357 95612
56361 93418
56368 97573
56385 125062
56404 169246
56423 58054
56423 101791
318566 157348
318572 199877
56433 119255
56434 159354
56449 62170
318599 75721
318634 250519
56493 204286
318652 68278
56517 223620
56523 97331
56528 94676
318675 120058
56543 120222
56566 127110
56574 397216
56574 238919
56580 191393
318731 114415
56591 78208
56610 63393
56611 257086
318773 56827
318773 58120
318780 318781
56637 167267
56646 102326
318790 99170
56677 170901
56684 250886
56684 111830
56684 410202
56684 79048
56688 61751
318837 58744
318839 222072
318839 324445
56696 56697
56698 106830
56698 389289
56698 361907
56698 448241
56698 188982
56698 413749
56698 359726
56698 400109
56698 365466
56698 358656
56698 333177
318850 89926
56711 58030
56715 124732
56725 206059
56725 184038
56725 328626
56725 323965
56725 366570
56725 182208
56725 110702
56731 56834
318890 396082
56752 56766
56753 445146
56753 84121
56756 57472
56756 383430
56756 141393
56756 394949
56756 153449
56756 117882
56756 195653
56756 253580
56756 364126
56756 116510
56756 373766
56756 199852
56756 331059
56756 441609
318902 109424
318896 70897
318913 63519
56780 59945
56792 56802
318943 73580
56802 177732
56839 76071
56839 61555
56861 58209
319006 250519
56860 72947
56860 345090
56860 119400
56860 383635
56860 448678
56860 245707
56860 102527
56860 324315
56860 247191
56860 356576
56860 448672
56860 440450
56860 179790
56860 261549
56860 376548
56860 375156
56860 385744
56860 396282
56860 369606
56860 105587
56860 357044
56860 424159
56860 371333
56860 341798
56860 125582
56860 376078
56860 433244
56860 234266
319011 68278
319011 173467
319021 138033
56878 227835
56878 235471
56889 192359
56889 56892
56892 100858
56892 201270
56892 192359
56892 428861
56892 436542
319037 206628
56900 122625
319061 319062
319069 320150
319083 129563
319097 354513
319097 113358
319107 68278
56965 56979
57026 57028
57026 238289
57026 105661
57026 236719
57028 105676
57045 121697
319199 139772
319213 319214
319227 106825
319231 319232
57092 103078
57092 82129
57092 343983
57095 66495
57095 205491
57105 69127
57105 129797
57105 354873
57105 59502
57105 224821
57105 104050
57105 104057
57105 134539
57105 69672
57105 246699
57105 62358
57105 455175
57105 78973
57105 366706
57105 382470
57105 369225
57105 251204
57105 144380
57105 133282
57105 230263
57105 90979
57105 211770
57105 320618
57105 102479
57105 171691
57105 383471
57105 247769
57105 60035
57105 196623
57105 213680
57105 132276
57105 193113
57105 141036
57105 368085
57105 348445
57105 107894
57105 411503
57105 394706
57105 380635
57105 247303
57105 353616
57105 413384
57105 119477
57105 396651
57105 328118
57105 328631
57105 171541
57105 194565
57105 99358
57105 335915
57105 421373
57105 230370
57105 100963
57105 61438
57105 356995
57105 375445
57105 177829
57105 366219
57105 178688
57105 353767
57105 417439
57105 157737
57105 151922
57105 112479
57105 355920
57105 418273
57105 349973
57105 118296
57105 349544
57105 230788
57105 72337
57105 116890
57105 379437
57105 110477
57105 125400
57105 211738
57105 133482
57105 182048
57105 391812
57105 354282
57105 246694
57105 256166
57105 144551
57105 355347
57105 209776
57105 354351
57105 88515
57105 113284
57105 138620
57105 337099
57105 116222
57105 386645
57105 91296
57105 371251
57105 136548
57105 235473
57105 404624
57105 110903
57105 224040
57105 90041
57105 345547
57105 194237
57105 378571
57105 136625
57105 190896
57105 82318
57105 213719
57105 140851
57105 68758
57114 128687
57114 57517
319258 59945
319258 143434
319271 159632
57159 131091
57159 239916
57159 328394
57159 193142
57159 384417
57159 412573
57159 325957
57159 215849
57159 362473
57159 354431
57159 261722
57159 371305
57159 345542
57159 180359
57159 91527
57159 342213
57159 256897
57159 239965
57159 388848
57159 326022
57159 390191
57159 354116
57159 107334
57165 74243
319315 249190
319324 65403
57181 338884
57186 246687
57187 62397
57187 209956
57187 416234
319378 75846
57236 89495
319380 165058
57261 340416
57261 75191
57265 64729
57269 77584
57269 62580
57269 116765
57269 90041
57269 79054
319429 377914
319440 103447
319444 394043
57301 259275
57303 114835
57306 64675
57306 114715
57314 114896
319469 252303
57361 61781
57369 63763
57370 65683
57400 72875
57408 326989
57426 60370
57426 59905
57426 323359
57429 106521
57429 59964
319574 122469
57430 66090
57457 57496
319607 319608
57469 119112
57469 371267
57469 122368
319615 133088
57471 194668
57471 57490
57471 101797
57485 110447
57490 348984
57490 182947
57490 57496
57490 144551
57491 383505
57496 88515
57496 106804
57496 385779
57497 159252
57500 64729
57533 149489
57533 104904
57536 206825
57537 61743
57541 324768
57541 175466
57541 452962
57541 232658
57541 230569
57541 95917
57541 411642
57541 245200
57541 142542
319686 337959
57551 320220
57555 64722
57560 377119
57569 66025
57569 217102
57569 201235
57569 196417
319719 195048
57581 202797
57593 57602
57625 62523
57635 369908
319792 157539
319797 73146
319801 85781
57669 397523
57674 244662
319822 156668
319825 445392
57688 66111
57688 419279
57688 129998
57688 58032
57688 194405
57688 255887
57688 247656
57689 99369
319859 165058
319869 95905
319874 68278
57733 117882
319879 95905
57749 161272
319901 80849
57782 354310
57782 346586
57782 238425
57782 218553
57782 347747
57782 236227
57782 439006
319933 169532
57802 354703
319948 380767
57814 76500
319970 132677
319981 95905
57870 166548
320014 243160
320017 232299
57903 198189
57904 86138
57904 160131
57917 157314
57917 63002
57930 383954
320079 182158
57951 60035
57954 59893
320100 122469
57957 111718
57967 364847
57967 102373
57984 75346
57984 362154
57984 354071
320134 183099
57990 99596
57990 158671
57990 321968
320150 106057
320150 66320
58016 99135
58028 378950
58028 428895
58028 369437
58028 170489
58028 418179
58028 418973
58028 406821
58028 133722
58028 330308
58028 341924
58028 427983
58028 423666
58028 361768
58028 63770
58028 324883
58028 429619
58028 128350
58028 322670
58028 165890
58028 195878
58028 234468
58028 433626
58028 90994
58028 382460
58028 377703
58028 386348
58028 334163
58028 354930
320175 255772
58032 410332
58032 372369
58032 419151
58032 162171
58047 128676
58062 66111
320212 59668
58074 348928
58095 109321
58095 209521
58098 364967
58102 357859
58107 79577
58118 376861
58118 63233
58128 58165
58146 342904
58146 413291
58154 249798
58159 186805
58172 61879
58183 252801
58197 208304
320350 69891
58210 375839
58210 338277
58210 333600
58210 116512
58210 248956
58210 182158
58210 69975
320392 216246
320414 68278
58280 169915
58280 448251
58305 92950
58326 183120
320498 86372
58386 233718
58398 90083
58411 234855
58411 89972
58411 125015
58411 397763
58411 246234
58437 113099
58438 108960
320589 68278
320590 199877
58455 77352
58456 77352
320606 451568
320628 71141
320634 204252
58503 118466
320647 68278
58547 143362
58555 132554
58560 123899
58596 70131
58597 134907
58603 440720
58603 440645
58614 132571
320772 63773
320783 80247
58640 176487
320809 76071
320813 67032
320824 96239
58705 63327
58729 62680
58741 92834
58741 102352
58743 99084
58744 257589
58744 102404
58744 79038
58744 61728
58744 363752
58744 334244
58744 396947
58744 394630
58744 380597
58744 245771
58744 104381
58744 102511
58744 174460
58744 380863
58744 413547
58744 65276
58748 133451
58750 58751
320894 330447
58770 70117
320980 90985
58845 140137
58848 94509
58861 149812
321018 321019
58875 415534
58875 334232
321035 130151
58903 406185
321061 250519
58929 382476
321089 433021
58961 86640
58970 140532
321121 212069
58992 133047
58992 90896
58995 186379
58995 127571
59007 99150
59008 239296
59008 386212
59008 428770
59008 330254
59008 434677
59008 97093
59008 399027
59008 435011
59008 396507
59008 166250
59008 406902
59008 247215
59008 456125
59008 442364
59008 375531
321157 95921
321158 235925
59023 127334
59026 59027
59026 137297
59026 137246
59026 103921
59026 137296
59026 137321
59026 137242
59026 137328
59026 95702
59026 137271
59026 137263
59026 137307
59027 137319
59027 137241
59027 137307
59027 137240
59027 103921
59027 137283
59027 240547
59027 125946
59027 137321
59027 137273
59027 137271
59027 137246
59027 137279
59027 137296
59027 137290
59027 137242
59027 137237
59027 137306
59027 137297
59027 137325
59027 137328
59027 137272
59027 137263
59027 137264
59037 105204
321182 60675
59053 338067
59056 63600
321201 67032
59074 197978
321226 120347
59095 182377
59108 231584
321262 68278
59158 203612
59158 209514
59158 63532
59158 364997
59159 357838
59159 407770
59159 376421
59159 242249
59159 88977
59159 188391
59159 357518
59159 329703
59159 330442
59159 417726
59163 110351
321310 360372
59167 419090
59168 98214
59191 92508
59191 382260
59202 356417
59204 91088
321353 114415
321355 90495
321357 96606
59219 209509
321395 321397
321402 68758
321416 68278
59274 371403
59292 139252
59322 242170
321476 93253
59335 243238
59336 250404
59336 242862
321481 82597
59338 73973
321484 63667
59343 432622
59343 367731
59343 147510
59343 175283
59356 63236
321503 71320
59383 68298
59385 82268
59397 151668
59397 338663
59397 180254
59397 385552
59397 226095
59397 186553
59397 199701
59397 174195
59402 209525
59433 104117
59433 223883
59465 65657
59465 89579
321610 68278
321612 68278
59473 179749
321624 132585
59502 116323
59502 64729
59502 106803
59506 174635
59528 59541
321680 77735
59542 232947
59542 390034
59542 434648
59542 226720
59542 178684
59542 346598
59542 325218
59542 402611
59542 379651
59542 84140
59542 337774
59542 430239
59542 231023
59542 235542
59542 232844
59542 233333
59542 447408
59542 338018
59542 191079
59542 164632
59542 178677
59542 191088
59542 60799
321689 232365
59571 71234
321728 125540
321728 355437
59589 69895
59589 83851
59595 97255
321756 128559
59617 159122
321761 347826
59649 225317
59670 91865
59674 98645
321852 352476
321852 429891
321880 68278
59784 144441
59784 167913
59784 129015
59784 117601
59797 122075
59811 166979
59811 399025
321968 189336
321970 101717
321990 64865
321994 360311
321999 154462
59886 186397
59887 405593
59891 170887
59898 217716
59893 353616
59893 61733
59893 243344
59893 381229
59893 373123
59893 61711
59893 393461
59893 415481
59893 66093
59893 140799
59893 398305
59893 446079
59893 99047
59893 166102
59893 230417
59893 333919
59904 63988
59905 92986
59905 62394
59910 156640
59910 401497
59910 133838
59913 144949
59913 105340
59917 86455
59939 322640
59945 406231
59945 107019
59945 197613
59945 433416
59945 91716
59945 421789
59945 246315
59945 390303
59945 237022
59945 210173
59945 213780
59945 335719
59945 152690
59945 434462
59945 177530
59945 399495
59945 341232
59945 218960
59945 343057
59945 387048
59945 205953
59945 211761
59945 124731
59945 125100
59945 123890
59945 407934
59945 397977
59945 365440
59945 391937
59945 327318
59945 422623
59945 71381
59945 187738
59945 160932
59945 419483
59945 353986
59945 197372
59945 79929
59945 326938
59945 325936
59945 202534
59945 164925
59945 439694
59945 347607
59945 71533
59945 83960
59945 108507
59945 402431
59945 333518
59945 331325
59945 249829
59945 208788
59945 395845
59945 102339
59945 354883
59945 150131
59945 326613
59945 201173
59945 244986
59945 377918
59945 354362
59945 340373
59947 118742
59947 89826
59947 449952
59964 418994
59964 343401
59964 330762
59964 136607
322125 80247
322139 239369
322158 68278
60018 72766
60021 338924
60021 439037
60021 358055
60021 335452
60021 432460
60021 367804
60021 375395
60021 159309
60021 104980
60021 111189
60021 199495
60021 354372
60021 61110
60021 251204
60021 371212
60021 376493
60021 71528
60021 451979
60021 403202
322177 198048
60035 69127
60035 430080
60035 87986
60035 329877
60035 99145
60035 125786
60035 130835
60035 116126
60035 111636
60035 165299
60035 79033
60035 359532
60035 158700
60035 255964
60035 141422
60035 97844
60035 409790
60035 71954
60035 207039
60035 328165
60035 82810
60035 129244
60035 255966
60035 123876
60035 373560
60035 347602
60035 409124
60035 439523
60035 113839
60035 100504
60035 201933
60034 203122
60064 82523
60065 138054
60066 135110
322263 322264
60128 218193
60128 115255
60148 113727
60148 137852
60148 99741
60151 140758
60153 128347
322306 116809
60177 149581
322327 401154
322357 143434
322376 97183
60236 86590
60236 93350
60236 66994
322390 236766
60257 139411
60258 88817
322436 113099
322456 68278
322467 234146
60340 127133
60340 137665
60350 200332
60350 65851
60350 100196
60350 199798
60350 132829
60375 227104
60375 330401
60375 83180
322522 254254
60379 198824
60400 76071
322544 68278
60419 356726
322570 68278
60454 75817
322601 88462
60463 212999
60469 86822
322626 67681
60483 229342
60490 98728
60490 214633
60490 194416
60493 61356
60493 105273
60493 219293
60493 144597
60493 438829
60493 444968
60496 206580
322645 134346
60512 223707
60512 434140
60512 454214
60512 374516
60512 359305
60512 434029
60524 378848
322676 114603
60541 108425
60559 111256
60567 371445
60583 176310
60599 157267
60613 341895
60651 157722
60651 69123
322800 69644
60664 112789
322812 75362
60669 105736
60695 378335
60695 324395
60695 259009
60708 95634
322862 90777
60770 221161
60827 407958
60827 223817
322992 198048
323003 225160
60869 99369
323054 133418
323067 361516
323067 365315
323073 98138
60928 91024
323080 245546
60940 114230
60964 121609
61000 92359
61013 374480
323166 214203
61040 167376
323211 61978
323212 323214
61085 234471
61085 234469
61096 123837
323241 389289
61101 161656
61101 185908
61101 400012
61101 338325
61101 139701
61101 333165
61101 331828
61101 187980
61101 337975
61101 410354
61101 373522
61118 71527
61118 119392
323265 68278
61144 389541
61152 81064
61193 97756
61204 233867
323351 384074
61211 128280
61211 221578
61211 153588
61226 221578
61226 221598
61226 160853
61226 130570
61226 109023
61226 221607
61235 118651
61235 116632
61241 86384
61278 111229
61291 63115
323438 62943
61310 64862
61335 211316
61374 151007
61388 191750
61388 359914
61409 390620
61415 80247
323566 95905
61429 161674
61437 62205
61459 63519
61474 106425
323634 95921
61499 116348
323658 69237
61530 349646
61530 66606
61530 128120
61530 224696
61530 407784
61530 403766
61555 384991
61574 136625
323741 74435
323741 68322
323741 327493
61637 139816
61638 86982
61642 152526
61643 61674
61658 105538
61685 371576
61687 250519
323884 85764
323887 63851
61748 85770
323900 65331
61776 170168
61794 88209
323939 199543
61813 80840
323989 95905
323997 68278
61860 216375
324017 147178
61879 92631
61879 170155
61885 101422
61890 362462
61890 96313
61890 332548
324040 384581
61900 64479
61906 248956
61906 365325
61908 113941
61908 61911
324064 89784
61927 158809
61941 61944
61944 116924
61944 114250
61944 344154
324089 324088
324112 68278
61978 195668
61978 189765
61978 411599
61978 186721
61978 145482
61978 376962
61978 341115
61978 255487
61978 247942
61978 183365
61978 333831
324142 68278
324178 371435
62035 124219
62036 92665
62036 193579
62055 178488
324229 324230
324231 411036
324239 339602
62097 451887
324267 68278
62123 213533
62139 103171
62139 119958
324294 185191
324302 153717
62178 245707
62180 95221
62195 64729
62195 101845
62195 240652
62195 369971
62195 146766
62198 92741
62205 378556
62205 209779
62205 404173
62205 393873
62205 107208
62205 404477
62205 330160
62205 330076
62205 90979
62205 376949
62205 134305
62205 394876
62205 392639
62205 344259
62209 402882
62209 442121
62209 334339
62209 334125
62209 444415
62209 433856
62209 382599
62209 442228
62209 412530
62209 375291
62209 404467
324358 250519
62215 389117
62215 401558
62215 394399
62215 349418
62215 186819
62215 403427
62215 429276
62215 410435
62215 152847
62215 373440
62215 332705
62215 390086
62215 363520
62215 229590
62215 233776
62215 364976
62215 173267
324366 95905
62224 329031
62226 148253
324422 68278
324426 338884
324442 66498
62358 118283
62358 188482
62358 136607
62376 437313
62394 157734
324542 364006
62409 404970
324555 118172
324573 394354
62448 162857
324606 324605
324606 115382
324604 115382
62469 158312
324622 95921
62503 226331
62503 107827
324655 145349
62512 235405
62512 84116
62514 165343
62514 233867
62514 329371
62514 120719
62514 213145
62514 397577
62514 83868
62542 136089
62542 135960
62542 391609
62542 164720
62542 163165
62542 238919
62542 258544
62542 362272
62542 91192
62542 153710
62542 427457
62542 154725
62542 414901
62542 230238
62542 253856
62542 427387
62542 439082
62542 369638
62542 228366
62542 343821
62542 400577
62542 141739
62542 163637
62542 162248
62542 207912
62542 366266
62542 165750
62542 117800
62542 150844
62542 438649
62542 453522
62542 350699
62542 442686
62542 96552
62542 197910
62575 185505
62575 204374
324720 95905
62580 79054
62581 66495
62604 64938
62607 138185
62607 191834
62607 188681
62608 130703
324760 324761
324760 198988
62634 213255
62638 195244
62638 187690
62656 223593
62656 154945
62683 448920
62698 190004
62706 65141
62710 97441
324855 370431
62721 62726
324870 79653
324874 122469
62741 105539
62741 373797
62742 345077
62806 255301
324952 68278
324982 128559
325003 89926
62860 62861
62869 101296
62876 138909
62877 250519
325040 68278
325039 75846
62925 195533
325082 334676
62943 353084
62943 176522
325090 68278
325125 232465
62992 206542
63008 153717
63011 63022
63032 432831
63041 159960
63045 350767
63070 250519
63085 371915
63090 250519
63105 141607
63105 89954
63115 132926
63115 158606
63115 235108
63115 87650
325263 197140
325266 68278
63135 224645
325294 75721
325315 86796
63172 75846
325324 79577
325329 95903
63208 211758
325354 75362
325354 68278
325375 120742
325381 389416
63257 126155
325407 153717
63268 132707
63268 353402
63268 103169
325424 68278
63285 136072
325428 185607
63304 63308
63304 121970
63306 128442
325453 336131
63327 83615
63327 242220
63327 360659
63327 199677
63327 116928
63327 121328
63327 78869
63327 146730
63327 149859
63327 204168
63327 226472
63327 141282
63327 224477
63327 260671
63327 135851
63327 102792
63327 65856
63327 161820
63327 107579
63327 251676
63327 93257
63327 91567
63335 383880
325483 122469
63356 167916
325508 68278
325509 68278
63380 67533
63392 90986
325537 107208
325564 122673
63444 63731
63452 72967
63452 63460
63454 157395
63454 63519
325601 84750
63468 82246
325624 326336
325624 410321
325627 325628
63497 63728
325654 79814
63512 250357
325661 73941
63518 382487
325670 63763
325672 197279
325678 71743
63541 90793
325716 162164
63576 120347
63586 76726
63592 208015
63595 133305
63600 135444
63604 79640
63616 212928
63619 193516
63624 107808
63632 334108
325810 250519
63667 409377
63667 421351
63677 63680
63687 86746
63700 38148
63704 82268
325850 347688
63706 340416
325862 65141
63731 66279
63741 252930
63741 183555
63741 359346
63741 113903
63745 338884
63750 348077
63763 86372
63763 383471
63773 344109
63773 65226
63773 438643
63773 242944
63773 360366
63773 332676
63773 182949
63773 169391
63773 243840
63773 242945
63791 378902
63791 116712
63791 240034
63791 378903
63793 410046
63800 386966
63800 165741
325971 82262
63832 404508
63835 102591
63847 92657
325998 87905
63856 260788
63856 182119
63856 407330
63856 369451
63856 390390
63856 236304
63856 369953
63856 237093
63856 176335
63856 378308
63856 244042
63856 333206
63856 388809
63856 350720
63856 395558
63856 386123
63856 408202
326018 105790
63875 228848
326051 116323
63910 75797
63913 348486
326067 182023
63931 92434
63931 130761
63931 330384
63931 433144
63931 405864
63931 191528
63931 114104
63931 88407
63931 140109
63931 104057
63931 395390
63931 80101
63931 339266
63931 139198
63931 227395
63931 133574
63931 126296
63931 402999
63931 203128
63931 210904
63931 177829
63931 111730
63934 134592
326094 172245
63975 166548
63988 159759
63988 120153
63988 391788
63988 159758
326146 75721
326169 68278
64030 218138
326184 198048
326184 122469
326208 92785
326231 106095
64104 124819
64108 332531
326268 158780
64155 73203
64159 157176
64176 396238
64176 116632
64176 64190
326324 97184
326328 110716
326332 205994
64190 90045
64190 76071
64190 78994
64190 183741
64190 348270
64190 430111
64190 428016
64190 426032
326336 98992
326345 256747
64204 82380
326346 85770
64223 131732
64245 122811
326394 121071
64264 129145
326414 220468
64274 69891
64287 361377
326441 390104
326441 382948
64303 134624
326456 192928
64320 345320
64320 435073
64320 154834
64320 411490
64320 396425
64320 328903
64320 383082
64320 381221
64328 93195
326496 75721
64354 92866
64354 101086
64354 215814
326509 71144
64375 188858
326527 453604
326530 365987
326579 69644
326615 73854
64482 80855
64516 217020
326664 110208
64543 97338
64577 157664
64577 86632
64577 115344
64577 117943
64577 456107
326723 66278
64583 114834
326783 122488
326793 326794
64705 207295
326849 143434
326854 76561
64722 105978
64722 76365
64722 117737
64722 69123
64722 90148
64722 102309
64729 134812
64729 182773
64729 119392
64729 148245
64729 134951
64729 350062
64729 100872
64729 355339
326883 124534
64767 166718
326927 72657
326947 68278
64805 257164
326951 163976
64821 255254
326970 172972
64829 360890
64835 163749
64835 438141
64835 156950
64835 371683
64835 119594
64835 428297
64835 387037
64835 418164
64835 257229
64835 360443
64835 197801
326987 170960
327001 68278
64861 381095
327014 121236
327025 101877
327025 198048
327025 179509
327025 245842
327033 68278
64893 188048
64893 175114
327037 179509
64896 195573
327042 251062
327042 153335
327045 198048
64899 155758
64903 113353
64903 139247
64903 239669
64903 255782
64903 344747
327046 198048
327046 68278
64906 137648
64906 435026
64906 388113
64906 221491
64906 186674
64906 98762
64906 337198
64906 80662
64906 110604
64906 416111
64906 175283
64906 76165
64906 327268
327052 95905
327048 68278
64938 81612
64976 94807
64987 64993
64987 141715
64993 120719
64996 355920
327152 392486
65011 89831
65035 79345
327196 132002
327199 134624
65086 124038
65097 127306
65097 109128
65097 401115
65097 338382
65097 107084
65097 114712
65097 258492
65097 422809
65097 138636
65097 242565
65097 124034
65097 199488
65097 207858
65097 80431
65097 245592
65097 259538
65097 75889
65097 74147
65097 349603
65097 105016
327268 116336
65141 86672
65141 80493
65141 405262
65141 96107
65141 144745
65141 115346
65141 123032
65141 157667
65141 389849
65141 253251
65141 132348
65141 372166
65141 86622
65142 222108
65156 93604
65162 99084
65176 69744
65177 169246
327325 73337
327339 99369
327347 373992
65215 138739
65278 71549
65281 117422
65312 96783
327457 404983
65329 71361
65329 348782
327474 68278
65331 346193
65331 66859
65331 398145
65331 356703
65331 133444
65331 373961
65331 335422
65366 70773
65404 406817
65411 76983
65419 74702
65439 192355
327620 415755
327645 142075
327666 327668
65527 118440
65548 102405
65548 98905
65562 83432
65581 249955
327733 103304
327732 388235
65600 104391
65637 197796
65644 190847
65644 169614
65644 105828
65644 142069
327790 113099
327793 68278
65649 329175
65659 197319
327818 128559
65685 186674
327838 150928
65707 75206
65714 208545
65714 344295
327873 141501
65731 341496
65731 153278
65731 411492
327935 92315
65792 379644
65792 179917
327941 88999
65798 335021
65798 102622
65817 329706
65828 352067
65828 69237
65852 109961
65861 120096
65887 115484
65887 147529
65888 102015
328038 122488
328038 89926
65900 239718
328052 328055
65914 67510
65932 84083
65938 67198
65939 132953
65940 115382
65956 74384
65956 69692
328102 174807
328126 122488
328128 95905
65984 112111
328134 122469
328142 68278
66021 257624
328202 328206
66063 260572
66063 153984
66068 202343
328215 329362
66089 113367
66089 188032
66089 113358
66090 119199
328243 68278
66104 66105
328249 110595
328249 107914
66111 259748
66138 202252
66140 197074
66162 143984
66168 89760
328326 99359
66224 201925
66235 231181
328418 68278
328419 198048
66278 187382
66278 351020
66278 404497
66278 337493
66278 222120
66278 423317
66278 407882
66278 425048
66278 390987
66278 192341
66278 203572
66278 329838
66278 330228
66278 262140
66279 69123
66279 100067
66279 98639
66279 121801
66291 333968
66320 122870
66320 146148
66320 128458
66326 103931
328470 165058
66328 122520
328481 192324
66356 102645
328540 75846
328558 188263
66416 78631
66422 378270
66428 152949
66429 66443
66435 370065
66442 88161
66443 181618
66447 86198
66449 97010
66469 252862
328630 120742
66495 381720
66495 119159
66495 79054
66495 428888
66495 120300
66504 441155
328701 449700
66588 420811
66602 186382
66602 123602
328747 68278
66621 353518
328769 155151
328795 176346
328815 76561
66723 97910
328882 186327
328882 82268
328889 68278
66750 74014
328914 68278
66793 362607
66805 148687
328972 68278
328975 328976
328975 98543
328992 139169
66860 338573
66860 175769
66860 74412
66860 181016
66861 186273
329014 336159
66880 73984
66882 136155
329028 68278
66887 73528
66890 68308
66890 378709
66890 442977
66897 68837
66897 340608
66897 341555
66897 342827
66897 356093
66897 167797
66906 78825
66907 69237
66910 378923
66910 441078
66910 174208
66910 99018
66910 438237
66910 450653
66928 93577
329112 329114
66977 224491
66977 194473
329125 348392
66985 145869
66985 121395
329132 95905
66997 190393
329141 220473
329170 198048
329175 384508
329175 147326
329175 346487
67032 175583
67032 432025
67032 368637
67032 79790
67032 146926
67032 424958
67032 254884
67032 134997
67032 153810
67032 390174
67032 134987
67032 194872
67032 355112
67032 385016
67032 196785
67032 437666
67032 414524
67032 431331
67032 364225
67032 253084
67032 153906
67032 357564
67032 375651
67032 366606
67032 254888
67032 245983
67032 242530
67032 251080
67032 345865
67032 101676
67032 438810
67032 412640
67032 166895
67032 130432
67032 393546
67032 357676
67032 413503
67032 331137
67032 119463
67032 428520
67032 435847
67032 357973
67032 428096
67032 87813
67032 248677
67032 345258
67032 362372
67037 90393
329195 98901
329201 97338
329200 123333
67062 250519
67062 448833
329224 68278
329228 189638
67109 195594
67115 431452
329266 76876
67122 76311
67164 123665
67167 81583
67181 90238
67190 125200
67190 120399
67190 138368
67190 110581
329336 68278
67192 81413
67194 174289
67205 184109
67215 119561
67216 74758
67282 128095
67282 120263
67282 238867
67282 251639
67282 343008
67282 253213
67282 255284
329429 129563
67291 113571
329448 120347
67315 114248
67363 446517
67363 440699
67368 391356
67390 373461
67397 199925
329542 69799
329598 68278
67486 84087
67501 101830
67501 227235
67504 115699
67510 201756
67510 174030
67510 189037
67511 115699
67522 72071
329677 188032
329706 68995
329706 175762
329706 86407
329706 197192
329706 87762
329706 72257
329706 136166
329706 159511
329706 335372
329706 212623
329706 149406
329706 212628
329706 354911
329706 160488
329706 107509
329706 112243
329706 260100
329706 75753
67572 152249
67580 200585
67580 238418
67580 136167
67580 164711
67580 179651
67580 401271
67580 384969
67580 391646
329735 95921
329752 349599
329752 344595
329757 69237
67670 222102
67675 167681
67681 173654
67681 143725
67681 230223
67681 170289
329826 89016
67692 133985
329852 68278
329855 68278
329858 95905
67728 183909
329903 68278
67771 142165
67780 68278
67783 255275
67791 88999
67791 122488
67792 434538
67792 335188
67792 426266
67792 415623
67792 416979
67792 400916
67792 376250
67792 377302
67792 434539
67792 390251
67792 332882
67792 405942
67792 400906
67792 415736
67792 336629
67802 111939
67802 141633
67824 249602
329969 72947
67828 256997
67828 196519
67842 201991
329991 68278
330006 113099
67865 119418
330013 333500
330017 68278
330071 76561
67950 339451
67950 80657
67950 413141
67950 390660
67950 257446
67950 338776
67950 80648
67950 129191
67950 171885
67950 232484
67950 136967
67950 382410
67950 204591
67950 332242
67998 109610
68000 111616
68000 68308
330153 259216
330156 260183
330155 198048
68020 109620
330179 68278
68080 68308
68089 69781
68089 69237
68094 74438
68096 68308
330265 115042
68120 160048
330295 68308
68158 167098
68159 251706
68161 112229
68161 341789
330314 359960
68193 153164
330341 105517
330357 75362
330357 122469
330362 68278
68238 115167
68264 161828
68278 429519
68278 388402
68278 446039
68278 385078
68278 251634
68278 330842
68278 450972
68278 338215
68278 337361
68278 437479
68278 339995
68278 177679
68278 342975
68278 373555
68278 436757
68278 372382
68278 434470
68278 419776
68278 384694
68278 350211
68278 349794
68278 338153
68278 413325
68278 360503
68278 223236
68278 169476
68278 415784
68278 261849
68278 382114
68278 450944
68278 335100
68278 445314
68278 394242
68278 453216
68278 397488
68278 453106
68278 332882
68278 365097
68278 404739
68278 342250
68278 367481
68278 415957
68278 179556
68278 362824
68278 342194
68278 122450
68278 92571
68278 204451
68278 426987
68278 428341
68278 420832
68278 362827
68278 379479
68278 339600
68278 387308
68278 439924
68278 345061
68278 347217
68278 179539
68278 411848
68278 423875
68278 174810
68278 351295
68278 450711
68278 257320
68278 177810
68278 257625
68278 410619
68278 434798
68278 339499
68278 347983
68278 411992
68278 430528
68278 415014
68278 379215
68278 444818
68278 415948
68278 170961
68278 257406
68278 333748
68278 415800
68278 339581
68278 149315
68278 366760
68278 331241
68278 341335
68278 348157
68278 449655
68278 367356
68278 341430
68278 376570
68278 369695
68278 350769
68278 204360
68278 379659
68278 249592
68278 349827
68278 408236
68278 443135
68278 378906
68278 408126
68278 364680
68278 391156
68278 213473
68278 351998
68278 389677
68278 411334
68278 135525
68278 369805
68278 356671
68278 392322
68278 354734
68278 215598
68278 334491
68278 427475
68278 448758
68278 409559
68278 335489
68278 433832
68278 175268
68278 171175
68278 334348
68278 356709
68278 331021
68278 369687
68278 333108
68278 331411
68278 260915
68278 395292
68278 416920
68278 260702
68278 387849
68278 418280
68278 382662
68278 422124
68278 152798
68278 253477
68278 442783
68278 401742
68278 414730
68278 347586
68278 438443
68278 346796
68278 133328
68278 330682
68278 434881
68278 373540
68278 194913
68278 387908
68278 432640
68278 334166
68278 358167
68278 331872
68278 423205
68278 367355
68278 404348
68278 339550
68278 435721
68278 456196
68278 349832
68278 409765
68278 388198
68278 179509
68278 336811
68278 414247
68278 410190
68278 455703
68278 405612
68278 444447
68278 454326
68278 336455
68278 425698
68278 407358
68278 371471
68278 449373
68278 419335
68278 407270
68278 391027
68278 445032
68278 397324
68278 451746
68278 363764
68278 419752
68278 374890
68278 443188
68278 421609
68278 421137
68278 339419
68278 456147
68278 451626
68278 238726
68278 404975
68278 414218
68278 372574
68278 346957
68278 358893
68278 384430
68278 343714
68278 388661
68278 441216
68278 112275
68278 455797
68278 345983
68278 362571
68278 350068
68278 442662
68278 351057
68278 345467
68278 343894
68278 421377
68278 448260
68278 331033
68278 364462
68278 367259
68278 338997
68278 364594
68278 343739
68278 419745
68278 378792
68278 371877
68278 200104
68278 453532
68278 334895
68278 419850
68278 449807
68278 444436
68278 416705
68278 437357
68278 360996
68278 242326
68278 248699
68278 373644
68278 339326
68278 374534
68278 334783
68278 405256
68278 419570
68278 331749
68278 430444
68278 411236
68278 451927
68278 446657
68278 419803
68278 369213
68278 386641
68278 162263
68278 408304
68278 407098
68278 420193
68278 449382
68278 215104
68278 384945
68278 359549
68278 418830
68278 373626
68278 419402
68278 377361
68278 434681
68278 205881
68278 356230
68278 426193
68278 346617
68278 445520
68278 417261
68278 334197
68278 440127
68278 337037
68278 351987
68278 406950
68278 244915
68278 218644
68278 440994
68278 431980
68278 336937
68278 334180
68278 333981
68278 247764
68278 410424
68278 332915
68278 330966
68278 230574
68278 399135
68278 415198
68278 344084
68278 369612
68278 331032
68278 409836
68278 441478
68278 417508
68278 426622
68278 365736
68278 423323
68278 436871
68278 397467
68278 454207
68278 337409
68278 244327
68278 335195
68278 406112
68278 363827
68278 349439
68278 413555
68278 442587
68278 448095
68278 196434
68278 232646
68278 123242
68278 444514
68278 415991
68278 385077
68278 452131
68278 412082
68278 427109
68278 345072
68278 250994
68278 415979
68278 359000
68278 369076
68278 345985
68278 79650
68278 177801
68278 440749
68278 355349
68278 430356
68278 122465
68278 367202
68278 411774
68278 388374
68278 339999
68278 246853
68278 348473
68278 337638
68278 394598
68278 411724
68278 435280
68278 124881
68278 335369
68278 402630
68278 206440
68278 332191
68278 401125
68278 432541
68278 229213
68278 179495
68278 243052
68278 436762
68278 366014
68278 362971
68278 368002
68278 228661
68278 448720
68278 332992
68278 345793
68278 440440
68278 361034
68278 340521
68278 372307
68278 446576
68278 414476
68278 363923
68278 403142
68278 338437
68278 353958
68278 379891
68278 375104
68278 406010
68278 385877
68278 401363
68278 452151
68278 332083
68278 346307
68278 430788
68278 376569
68278 374194
68278 372460
68278 415608
68278 89009
68278 335450
68278 411798
68278 204037
68278 402121
68278 403738
68278 348444
68278 386449
68278 417891
68278 355479
68278 414132
68278 261810
68278 350449
68278 339597
68278 339577
68278 344322
68278 417510
68278 99215
68278 410482
68278 335700
68278 406295
68278 374957
68278 377475
68278 357861
68278 356319
68278 343434
68278 366689
68278 187197
68278 343713
68278 368344
68278 416355
68278 380744
68278 349373
68278 369363
68278 259519
68278 366121
68278 428317
68278 388423
68278 453496
68278 369186
68278 451478
68278 419124
68278 414280
68278 448153
68278 428523
68278 335224
68278 138324
68278 340750
68278 441253
68278 386817
68278 336605
68278 413050
68278 361284
68278 352825
68278 451252
68278 243055
68279 434920
68281 332102
68281 372495
68308 361164
68308 432682
68308 195766
68308 78241
68308 69796
68308 73315
68308 74494
68308 339891
68308 361294
68308 213592
68308 231574
68308 152226
68308 236406
68308 354926
68308 175767
68308 351427
68308 333044
68308 341942
68308 355138
68308 153927
68308 401325
68308 129287
68308 237436
68308 187719
68308 70448
68308 394307
68308 69234
68308 342159
68308 76165
68308 118299
68308 71339
68308 80673
68308 83011
68308 155946
68308 351962
68308 74493
68308 109634
68308 109618
68308 402786
68308 85433
68308 237432
68308 347080
68308 74424
68308 152235
68308 68313
68308 356521
68308 361293
68313 69237
68313 72074
68313 76165
330490 209142
330509 330510
68419 82461
330579 159197
68436 210927
68445 86792
68447 74014
68450 221593
68474 386801
68474 167245
68474 398455
68474 259561
68474 430916
68479 91546
330637 331980
330642 144764
330658 412001
68516 260264
330676 116473
68536 127286
68567 79810
330725 74014
68584 68618
68599 251309
68599 74014
68624 114971
330782 88201
330791 113099
68661 118670
68702 427131
68702 419713
68702 368966
68702 364486
68702 403049
68702 406734
68702 367200
68702 159931
68702 241969
68702 403771
68702 257756
68702 378753
68702 368602
68702 420810
68702 238659
68702 404289
68702 450120
68702 375708
68702 347444
68702 411463
68708 146148
68708 103221
68710 159328
68742 105182
68758 79103
68764 207186
68774 147110
330920 128559
68786 407049
68784 454746
330936 179187
330940 105587
330942 122469
68804 108515
330954 120001
330956 330957
68820 77562
331023 204512
331026 127966
68885 177272
68885 79536
68885 129213
68885 456105
68885 78568
68885 129212
68885 138658
68885 158634
68885 139927
68935 431800
68941 129603
68945 69237
68954 151811
68954 258867
68956 110903
331108 249574
331115 197725
331115 71311
331149 147178
69014 333755
69021 192716
69043 69288
69067 78291
331230 212353
331230 147491
69127 69151
69131 102326
69143 192152
331303 250519
331316 113099
69190 160497
69207 70219
331352 101877
69208 150960
331359 415192
69219 69281
69219 69237
69237 259250
69237 237877
69237 237431
69237 129287
69237 185758
69237 341942
69237 369550
69237 340726
69237 149459
69237 136541
69237 213592
69237 373856
69237 107108
69237 335942
69237 365041
69237 163183
69237 153927
69237 186866
69237 70552
69237 109659
69237 355090
69237 71434
69237 132712
69237 70554
69237 185761
69237 370706
69237 353345
69237 235557
69237 339053
69237 390242
69237 404459
69237 69774
69237 74390
69237 87747
69237 136163
69237 448679
69237 128265
69237 199331
69237 341293
69237 385027
69237 128270
69237 71339
69237 353844
69237 85955
69237 85436
69237 362652
69237 78242
69237 149665
69237 73328
69237 231574
69237 340714
69237 165885
69237 76165
69237 136171
69237 380960
69237 203419
69237 450042
69237 74420
69237 355342
69237 111624
69237 253959
69237 447896
69237 341711
331386 353667
69256 253180
69269 98645
331441 76071
331456 250519
331457 168043
69326 431784
69332 213926
331478 77656
69396 82629
331551 71392
331563 247568
69480 93812
69483 120259
331641 199509
331642 249393
331648 89016
331669 71591
69552 154594
331715 153995
69585 180496
69589 368455
69634 77732
69636 77724
69637 243032
69644 151221
69644 95956
69644 102671
69644 191636
69644 130783
69644 243007
69644 445045
69644 86228
69644 151383
69644 380589
69657 198618
331818 153717
69696 76165
331872 122449
69729 69744
69729 82203
331885 122488
69744 170821
69744 111726
69752 84172
331900 395527
69774 73925
69781 84595
69799 358853
69824 74014
69828 130528
331979 331980
331980 331986
331980 350441
331980 331983
331988 109872
69851 99979
69863 246328
332009 70958
332028 133974
332031 332032
69891 440331
69891 365166
69891 99145
69891 417809
69891 88515
69891 99042
69891 106995
69891 182158
69891 102478
69891 410643
69891 243364
69891 78505
69891 394948
69891 194542
69891 358203
69891 206726
69891 186797
69891 426519
69891 153575
69891 396784
69891 385262
69891 398957
69891 439916
69927 71340
69939 143635
332088 248699
332094 95905
69952 136118
69959 152363
332105 103447
332106 120347
69968 141612
69975 71207
332131 334294
332139 113506
70011 98286
70011 218001
70011 241576
70011 106632
70037 109217
70044 77295
70048 100411
70048 196503
70048 126062
70058 170499
70088 121583
70090 249533
332243 89016
332243 198048
70101 123044
70105 99070
70117 207822
70117 88789
70117 115131
70123 70133
70131 356183
70152 70155
70158 183757
332304 178345
332308 247136
70160 149467
332325 104802
70223 231574
332384 221373
332393 434471
70284 115382
70338 413343
332491 259814
332505 91714
332531 247769
332531 379285
70420 81232
70441 141842
70458 161952
332613 260395
332631 177812
70520 84595
70532 184924
70532 128396
70532 128399
70550 70551
70550 397360
332705 99070
70567 232743
70572 112955
70573 390790
70637 90597
332787 199877
70667 75846
332820 429979
70679 89495
332825 70897
70689 429846
70689 215132
70689 156535
70721 210238
70745 157584
70746 447905
70764 96568
70769 109568
70786 144609
70786 433950
70786 164560
70786 159072
70787 445525
70796 184735
332943 361966
332963 347874
332966 104679
70837 76165
70844 133268
70883 129230
70883 207336
333031 173622
70897 391810
70897 90428
70897 127388
70897 79832
70897 140045
70897 429951
70897 75443
70897 424804
70897 175486
70897 429631
333046 255081
70903 113953
333049 82008
70920 100592
70922 108421
70927 392257
70929 228604
70958 456306
70958 370682
70958 199125
70958 453196
70958 375717
70958 124758
70958 346665
70958 378932
70958 108507
333110 115271
333111 86822
71026 225601
71034 413524
71037 94986
71039 384162
71042 136341
71042 342592
71079 397138
71101 156573
333274 120816
71141 188408
71141 112325
333332 74462
71207 98905
71207 210903
71207 100977
333369 145996
71244 362205
71243 122040
71260 113099
71273 103564
71277 198442
71277 170192
71293 159589
71311 98046
71311 109071
71312 363396
71315 182158
71315 368591
71320 71381
71320 209772
71320 190808
333479 147178
333482 79052
71339 127479
71339 138554
71339 76165
71355 359746
71355 353227
71388 174635
71392 139231
333537 109379
333538 130785
71394 91714
71394 362632
71394 247769
71394 121042
71407 130634
71408 73911
71411 91357
71415 123714
333581 184094
333584 250519
71485 77575
71521 116490
333682 129274
71544 196859
71544 237529
71549 391269
71549 261427
71549 380506
71549 106517
71555 113926
71561 71601
71562 83978
71591 253883
71601 98321
71601 446986
333750 120348
71621 153087
71623 184653
71627 71637
333789 71800
333799 425511
71657 99822
71670 77829
333816 377458
71677 108632
71714 90374
333857 374975
71722 71724
71743 231643
333900 110903
71781 455679
71783 420046
71800 224534
71800 123545
71800 189021
71800 161557
71801 71802
333968 333969
333973 250519
71871 92120
71872 245301
71873 92107
71878 169819
334028 113099
71889 86640
71890 231511
71923 251056
334143 156256
72008 86631
72032 239045
334183 182421
334206 227950
72075 144741
72094 78289
72114 75797
334269 449157
334273 146997
72184 99369
334330 128559
72194 407961
72217 77160
72217 77211
72217 77231
72217 80665
72217 221484
72217 96792
72217 80209
334377 376385
72272 89459
72293 79592
72293 74014
72298 150245
72298 209246
72298 128799
334446 129563
334450 129563
334452 334454
334455 361781
334453 361781
72313 103743
334490 97539
72383 76165
334546 118027
334546 175629
72422 133398
72458 253909
334610 109281
72514 113036
334676 334677
72535 72536
72539 139688
72566 111426
72574 80322
334765 90802
334776 388059
72657 349037
72657 201155
72657 99773
72657 393577
72657 136072
72657 115423
72657 437493
72657 247769
72657 368866
334807 170027
72672 96809
72684 144111
334834 407480
72718 164413
334885 112050
334925 430669
72783 144216
334941 345573
72814 110467
72836 110451
72839 102121
72839 134818
72839 101177
72839 119114
72839 134820
72839 203464
72839 176102
334988 373354
72847 376976
335011 198048
72899 73300
72906 98411
335080 112050
72947 255720
72959 157395
72961 150073
335142 426517
335177 113099
335180 198048
335209 250519
73071 155885
73071 99500
73081 439279
73081 127319
73085 121428
73099 256277
73128 214026
73133 184983
335280 387670
335284 429598
73151 180530
335308 121234
73197 73205
73205 112483
73227 93525
73296 76500
73303 103083
73313 436266
73325 152228
73328 76165
335474 335476
73332 107042
73338 97219
73337 393769
73337 341232
73337 385214
73337 218659
73337 230452
73337 439916
73362 109379
335514 173054
335523 85353
73393 149391
73393 234264
73476 446328
73476 93298
73476 160045
73486 363259
335652 348177
73540 167797
335701 122488
73560 96331
73583 149922
73628 160541
335813 98931
335819 444795
335835 335836
335836 368116
73692 373054
73692 446145
73692 73775
73710 84831
73722 99369
335870 379867
335870 104574
73729 85290
335884 171486
73765 208686
335924 129563
335925 129563
335934 335935
73794 161365
73811 78505
73860 95725
73860 95756
336048 113099
73917 135805
73927 105979
73934 186425
73934 389254
73941 108999
73941 415818
73941 359652
73941 148702
73941 111493
73941 148699
73941 166892
73941 437649
73941 124346
73941 342815
73941 109011
73949 426129
73949 237247
73949 453208
73950 120884
73972 73973
73973 363716
73973 377860
73973 250404
73973 348480
73973 161950
73973 438362
73979 436527
73979 161950
73979 175273
73979 438927
73979 383220
73979 134377
73979 370186
73979 367731
73979 400731
336147 91963
74014 91094
74014 151949
74014 196072
74014 250437
74014 140922
74014 138694
74014 108571
74014 126630
74014 214632
74014 145228
74014 445178
74014 97911
74014 114018
74014 415432
74014 128799
74014 342181
74014 84666
74014 396222
74014 435892
74014 141150
74014 167248
74014 196550
74014 106308
74014 378232
74014 183436
74014 211346
74014 222196
74014 193321
74014 131668
74014 176748
74016 74047
74016 74031
336168 162509
74035 205284
74036 416293
74036 106089
74036 176758
74047 156668
336219 157149
74075 160988
74081 94716
336229 160961
74088 416746
74088 177431
74094 86655
74135 85770
74135 194459
74139 99386
74147 86706
74153 128472
336298 121553
336309 409596
74168 397065
74197 195048
74223 206023
74266 385189
74268 137757
336437 174294
336438 119199
74316 242576
74322 435698
336488 74676
74352 130627
74408 187570
74409 159500
336581 355484
336594 359772
336629 256677
74512 113223
336685 153995
74544 344518
74544 426968
74544 354828
74557 422651
74591 216131
74595 343077
336744 336745
74621 194472
74621 115236
74639 195193
74640 113737
74647 113737
336801 252829
74676 394161
74682 365380
74682 224696
74696 102707
74700 194964
74700 248974
74717 193921
336882 85377
74740 217235
74744 125204
74744 370286
74745 250519
336911 250519
74775 128915
74781 203720
74783 216684
74783 92693
74783 95695
74783 362195
336936 179509
74795 128799
74812 74813
74842 226450
337005 87355
74866 116147
337033 95905
337033 95921
337035 239346
74906 447714
74925 169072
74928 95843
337092 123248
337094 363669
337170 351567
75039 408283
337207 198048
337244 128559
75107 125176
75118 84935
337264 129563
337279 226705
337292 172331
337381 113099
75261 432277
75261 241282
337409 95921
75275 155388
75281 214675
75286 134796
337480 99422
337483 435831
75362 150415
75362 357815
75362 433026
75362 99243
75362 433314
75362 441346
75362 439816
75362 355085
75362 385586
75362 366531
75362 451219
75362 409950
75362 416355
75364 122469
75365 384070
75365 138327
75365 357361
75371 95905
75391 139758
337573 207623
75443 169853
75443 75694
75443 450882
75443 75673
75480 126670
75480 439797
75487 181618
75527 105510
75531 130727
75551 355203
75551 91953
75566 220042
75580 88433
337732 106294
75592 162483
75592 228127
75598 106209
337775 84134
75672 127369
75678 228586
75684 119023
75721 427810
75721 443950
75721 372173
75721 244348
75721 261300
75721 209153
75721 430602
75721 346452
75721 347472
75721 454833
75721 339096
75721 410604
75721 229336
75721 455849
75721 388885
75767 385601
75774 78432
75796 223707
75796 95387
75796 106137
75797 209350
75797 371783
75797 186674
75797 442985
337942 106417
337947 250992
337948 376601
337974 95905
75846 258051
75846 123192
75846 82183
75846 369497
75846 186352
75846 414954
75846 423573
75846 367797
75846 421480
75846 415215
75846 186368
75846 127409
75846 116476
75846 218282
75846 218283
75846 116350
75846 387882
75846 385139
75846 121023
75846 256054
75846 123518
75897 382572
75953 142371
75953 341439
75974 209550
75989 88324
338135 241721
338149 128559
76005 247431
76011 248168
76028 202747
338176 99369
76050 148662
76050 148660
76050 125714
76071 403191
76071 393727
76071 395845
76071 418506
76071 423550
76071 91334
76071 247769
76071 446303
76071 435183
76071 238144
76071 130959
76071 395044
76071 400957
76071 212002
76071 140654
76071 175064
76071 353870
76071 430988
76071 393921
76071 394606
76071 389294
76071 165315
76071 399019
76071 394302
76071 392444
76071 93468
76071 363025
76071 192845
76071 349412
76071 439332
338222 433454
76084 117661
76084 235473
76107 248892
76142 79168
76160 385397
76160 228626
76160 237768
76164 380813
76165 355138
76165 103447
76165 203419
76165 109610
76165 111624
76165 369550
76165 392034
76165 141905
76165 119465
76165 196287
76165 81136
76165 152235
76165 186436
76165 404200
76165 395234
76165 78825
76165 389596
76165 213592
76165 357306
76165 87761
76165 136541
76175 167367
338334 409893
338336 409893
76222 79133
338381 215077
76259 189003
76259 88286
76265 110903
76275 254256
76275 197655
76283 99369
76318 211418
338481 370050
76360 92434
338521 394775
76415 419980
76504 169360
76504 431859
76504 126805
76504 420374
76504 118232
76514 216913
338674 364063
338674 364062
76561 450339
76561 239626
76561 168977
76571 78334
76592 183014
76592 236501
76608 177272
76628 101738
76634 162152
76645 392100
76638 89166
338821 250970
76716 87346
76720 431331
76726 86822
76738 190890
338884 439332
338884 446954
338884 389294
338884 399676
338884 110739
338884 157379
338884 385068
338884 80257
338884 165741
338884 95080
76762 160899
76764 172972
76771 184057
76777 381073
76777 78108
76789 119858
338950 78224
338978 85769
76858 110544
76858 179733
76858 82162
76876 119901
76876 207691
339023 136163
339038 377831
76920 250519
339072 406185
76934 77874
76935 95579
339090 112050
339094 77441
339109 95905
76983 350322
76983 182057
76983 184058
77021 140424
339172 123135
77034 144127
77034 179410
77068 92485
77078 155948
77118 99369
339266 250519
77166 221484
77180 102839
77187 156337
77188 248388
77211 131376
77211 77260
77211 77279
77222 131376
77227 88034
77231 339877
77231 109379
77231 133418
77243 77278
77243 77279
339401 101374
77267 109379
77278 96792
77305 388710
77305 256383
77305 132303
339467 98931
77339 367408
77343 81042
77345 432499
77345 257939
77352 82812
339503 367636
339537 124534
339549 179558
339579 122469
339579 198048
339602 78973
339618 147178
77476 110372
339621 103447
339632 162317
339636 113099
77508 79577
77512 136947
339688 159424
77551 187666
77555 346377
77555 120719
77555 157176
77562 184653
77592 88519
77608 164395
77619 366453
77656 442685
77656 216227
77656 219703
77656 193334
77656 454400
77671 181084
77673 93162
339848 425988
339884 393162
339900 169246
339904 182685
77773 185593
77776 132182
77794 85727
339946 78993
77829 122284
339987 113502
77868 83134
77900 182886
340088 79714
77954 387011
340098 109872
77974 160610
340123 340125
340123 388175
78002 448008
78002 162279
340170 145349
78035 437945
78090 96170
78107 248149
78141 364936
78142 388694
78170 143320
78180 149875
340346 95905
78237 195535
340391 166187
78272 185495
340417 340416
340416 107208
340416 101188
340416 371139
340416 191662
78289 261224
78337 146192
340485 147178
78349 130499
340498 166928
78373 131995
78379 163120
340536 106438
78432 152317
78470 376631
340625 184272
78485 150923
78487 91682
78501 79054
78519 78529
78526 182524
340713 233376
78568 105811
78613 147636
78614 78618
78618 90288
340766 122469
78632 114787
340798 122469
78654 227456
78654 219401
78654 96568
78654 166018
340799 122469
340799 112048
78666 416374
78666 154790
340823 122469
78692 186267
340881 198048
78742 183002
340889 97963
78770 219109
340948 348030
78808 359917
78812 123056
340958 122469
340958 198048
340987 197478
340987 356133
78887 161801
78887 134110
78898 114243
341056 172466
341056 196668
341065 341066
341066 345334
78950 136625
78993 194683
78998 388495
341155 341156
341173 361405
341194 217778
79053 236677
341206 253143
79087 173325
341232 220974
79133 113799
79138 183404
341298 250519
79180 115453
79191 161907
79191 132585
79191 123714
79202 92544
79214 121407
79220 135367
79237 209306
79253 134667
79354 127524
79373 383251
79386 135587
79386 200345
341537 101754
341547 96529
341566 179558
79423 192640
79423 141442
79423 251525
79423 79501
79423 150756
79423 85107
79425 100089
79425 79449
79425 199293
79425 133747
79425 149055
79425 149044
79428 135163
79443 124525
79449 109267
341611 218659
341627 182719
79507 131956
79547 89844
79560 89869
79577 152773
79577 167669
79577 426140
341724 147401
79592 160201
341760 178030
79649 199510
79649 140992
79649 390853
79653 342356
79653 419874
79653 342683
79653 359415
79653 232658
341811 95921
79669 217458
341831 188981
79693 250442
79694 128626
79714 193077
341858 350428
341860 110447
79726 122967
341891 344497
341897 95905
79771 148860
79771 352017
79778 454689
79794 148573
79802 94655
79811 91107
79814 193133
79815 222649
79816 95513
79822 408662
79891 105491
79911 153972
79911 178810
79911 153973
79911 181266
79911 450618
79911 379701
79931 85925
79945 190208
79945 404535
79945 415507
79945 405250
79948 128718
342095 113817
79959 218260
342104 156822
342115 95905
79999 244467
80008 115447
80008 80009
80009 158244
342206 95423
342210 198256
80068 97555
80068 95612
80068 175242
80068 418261
80068 441987
342243 379186
80101 129495
80101 177882
80101 135337
342246 132797
80208 146311
80209 347383
80213 208957
342373 85647
80247 395277
80247 401310
80247 371059
80247 387483
80247 180116
80247 125963
80247 150911
342394 171300
342399 155142
80255 421287
80257 388170
80257 435866
80257 381706
80257 393814
80257 110745
80257 439066
80257 405442
80257 429870
80257 351496
80257 400278
80257 238955
80257 410785
80257 246186
80257 384662
342419 200992
342427 252174
80288 109257
342433 83708
342441 95905
80299 123790
342457 104574
80314 346495
80314 140586
80343 96934
342501 174162
80359 130453
80383 195704
80453 106825
80466 80475
80466 104118
342616 367512
80478 128559
80513 210624
342688 84611
342688 86640
342688 113517
342703 198048
80604 121212
342756 209708
80620 80621
80643 132361
80648 136963
80648 80657
80662 103447
80667 125406
342850 100359
80731 119187
342908 262140
342951 132002
80849 229200
80851 130364
343014 250519
80894 87614
80924 103824
80926 401612
80926 417053
80926 206753
80926 434599
80926 103447
80944 99890
343137 89945
81005 421927
81005 181529
81005 242465
81038 100067
81042 254179
81042 395196
81042 157100
81042 174603
81042 446080
81064 149451
81064 205885
81092 213156
81102 83122
343281 139247
81171 99369
81181 187701
81181 81183
81226 172809
81232 98231
81235 137151
81288 170182
81288 81290
81297 214102
343456 260344
81334 203576
81395 424557
343545 128442
81405 123056
81405 89713
81429 261210
81429 109399
81437 86544
343589 112050
343595 133373
81468 240881
81470 136111
81470 88713
81470 182685
343642 113099
343665 384270
81553 131512
343739 122469
81600 221319
81672 132020
81672 178764
81699 250519
81702 182011
343846 198048
81703 135445
343860 106825
81721 120053
81824 399925
81824 157710
344111 132002
344130 109077
82019 86822
82024 116562
82054 95476
82065 99369
82101 175764
82101 409837
82107 186273
344258 99369
82123 117099
344279 133411
344289 375053
82151 136670
344336 419480
344352 344353
344394 87354
82268 90979
82268 379869
82268 392706
82268 406894
82268 181019
82268 102413
82268 360528
82268 354788
82268 103726
82268 241407
82268 108029
82268 99596
82268 171282
82268 396214
82268 108024
82276 128350
82330 353847
82330 102119
344503 213780
82361 130914
82366 201580
344517 104802
82392 236993
82408 427633
82450 145639
82468 91115
344632 261753
344634 203516
344689 252993
344691 111624
82563 135477
82566 260160
344718 362685
82594 119266
82688 178022
344851 126626
82709 145157
344861 106600
344868 413100
344869 148858
344878 344881
344882 344884
344915 359960
82775 455183
82775 136717
82808 82809
82810 82813
82858 99369
345007 373914
82873 379825
345029 190449
82906 142386
82936 103854
82952 124728
82963 157083
345116 109660
345141 448916
83021 360045
83031 105569
345189 107918
83069 136982
345220 99525
345236 137605
83105 149930
83105 239390
83105 163823
83105 169496
83123 113099
345269 141328
83209 120742
345428 122469
83329 83337
345484 132751
345487 359376
345505 382760
345510 372620
83397 114280
83412 119187
83432 183203
83432 140001
83432 143984
83432 176812
83432 100707
83432 353013
83432 120384
83453 83459
83484 181345
83484 218484
83494 164601
83494 141156
83518 90185
83570 166249
83586 109191
83615 152364
83618 134099
83659 198580
83700 105489
345878 235844
345881 223870
83745 130970
345890 86949
345890 227861
83748 83756
83751 244642
83756 353973
83759 135474
83781 444370
83781 372345
83781 172185
345939 345940
345940 345942
83883 171005
83898 425170
83922 372149
346104 115382
83976 87193
83979 182158
83980 122354
83980 106804
84021 84022
84039 162015
346194 346195
346203 389167
346210 149875
84077 455185
84077 167746
84077 197093
84077 168469
84078 162607
84083 98992
346249 161907
346250 129563
346252 104802
346253 129563
84134 434806
84134 161957
84134 178677
84134 232261
84134 191079
84134 84137
84134 356815
346284 218335
346326 361625
346335 167630
84223 132953
346369 359976
346376 243238
84257 366989
84262 188327
346503 429169
84425 128195
84428 201036
84468 226474
84632 100203
84633 197618
346788 244067
84644 447469
84647 153741
84647 414398
84647 96202
346802 104320
84746 164112
84758 112098
84758 138620
84779 96434
84802 213690
84831 258530
84831 87373
84831 138772
84841 220954
84841 182011
84892 85844
84935 211937
84976 361150
347139 387853
85013 107896
85028 125298
85028 116812
85028 134823
85028 93935
85073 85130
85076 143000
85091 127983
347260 88804
85119 203429
85122 246520
85122 130783
85123 119760
347283 198048
85158 250010
85180 195472
347329 106825
85188 153883
85193 224472
85194 187844
347354 101713
85218 181470
347395 198048
85259 145323
85264 128800
85266 259562
85305 257514
85318 226420
347463 127966
85386 132596
347535 347538
347536 135866
347538 373843
347538 347539
85424 181986
85479 100571
85479 134344
85505 163279
85505 132009
85505 113502
85546 100870
85546 94375
85586 110712
85586 181285
85586 220601
85586 147971
85586 230863
85586 384626
85586 384938
85586 226604
85586 124914
85586 401634
85586 147476
85586 218910
85586 208703
85599 379822
85599 427377
85599 436472
85599 349616
347745 381223
347745 373768
347745 261080
347747 347748
85615 194858
85647 262043
85663 105075
85674 88458
347832 87429
85690 217458
85727 96411
347875 375263
85748 227594
85768 351344
85769 166095
85770 165944
85770 396122
85781 244169
85800 354952
347978 394038
85844 120635
85847 99369
85856 97920
85919 86581
348096 86136
348101 198048
85965 248956
348136 177296
348137 143366
348144 139935
348152 96851
348184 250519
86049 115699
86049 98992
86053 98826
86058 177130
86071 244242
86071 407079
86071 218790
86071 162491
348248 157359
86111 106209
86114 113099
348261 211640
86136 199741
86143 218109
348309 198048
86170 95505
86181 123704
86182 178353
86190 90237
86195 206143
86198 160870
86198 94934
86198 145465
86198 160869
86198 216194
86239 148055
86259 120053
86260 103589
86285 214918
348461 371884
86362 132585
86364 154332
348516 191907
86372 383471
86372 137605
348517 96536
86384 116632
86386 95338
348536 348537
86393 208254
86393 202327
348537 348538
86395 185399
86423 89844
348582 201036
348593 99369
86455 156529
348609 438451
86501 444871
348654 113099
86512 178146
86544 234382
86544 420947
86563 129981
86570 98161
348731 112815
86607 180528
86613 86770
86627 105135
86699 243765
348848 415800
86706 105016
86706 162195
86706 397523
86724 131019
348869 149468
348869 444593
348911 113099
86783 126310
86783 126309
86799 411509
86813 383634
86813 352752
86813 426639
86813 96913
86813 426093
86819 250950
86822 128906
86822 223664
86822 128913
86822 146970
86822 128614
86822 166895
86822 398207
86835 148860
349008 122469
86893 145946
86905 370568
349053 109660
86916 98590
349106 116919
86967 112879
86973 240710
86973 386123
86973 196817
86973 92116
86973 371410
86982 196817
86999 101738
87024 115279
87023 115279
349183 423369
87045 90379
349200 153717
349222 121293
349251 349252
87145 133418
349335 148687
87193 125505
87204 163325
87262 189821
349422 366878
87282 139463
87283 424974
87286 187703
349431 102471
87292 153686
349448 128559
349455 128559
87325 367713
87354 235127
87355 228795
87364 201923
87368 251322
349538 176055
349556 195109
87450 194968
87491 379161
349691 154462
349698 133592
349700 138327
349806 203735
87666 91378
87668 164352
349814 154228
349818 89016
87681 450114
87681 199563
87681 408833
87681 194063
87681 425985
87681 257392
87681 117614
87681 425180
349826 198048
87692 113817
87707 87706
87716 136508
349909 134683
349926 389487
349977 95905
87838 222649
350009 397134
87869 95039
87881 105318
350040 120347
350071 91546
88008 93482
350157 102431
88034 92409
350177 246104
88055 224651
88055 140584
88091 155310
350262 198048
350263 232672
350290 350291
88164 163983
88196 230632
88201 370388
88209 171314
350370 113099
88230 88241
88231 193669
88231 408208
88231 223021
88243 95846
88259 115232
350408 91115
88297 260777
88301 225919
88302 209210
88317 176439
88327 92039
88359 177160
350560 198048
88457 423844
88457 169768
88464 176806
88515 158714
88515 116512
88519 109085
350675 186347
350688 122777
350724 135474
350724 233898
350743 93009
350752 120347
88621 200995
88623 134728
350787 143434
350824 250519
88696 167606
350889 181802
88747 167797
88755 113322
88780 157657
350934 362646
88801 98992
88801 189641
88804 259562
88804 158179
88804 158176
88804 250552
88804 174708
88804 132391
88804 244851
88804 88807
88810 105229
88835 158606
88835 128196
350982 95871
88851 435626
88854 157359
88855 89016
88860 122488
88882 198325
351059 250519
88947 88973
88957 207483
351102 117712
351111 232943
88971 145994
88999 117799
88999 204450
88999 261767
88999 395886
88999 367024
88999 442698
88999 185480
88999 132771
88999 164128
88999 128843
88999 110715
88999 245840
88999 158601
88999 243696
88999 158823
88999 230189
88999 237864
89012 215586
89012 122462
89012 89948
89012 97178
351156 98138
89016 388661
89016 424046
89016 372332
89016 447140
89016 176040
89016 372891
89016 418220
89016 389619
89016 253093
89016 409881
89016 376424
89016 106761
89019 243651
89019 116015
351190 198048
351201 351202
89072 444871
89072 125512
351217 250519
351237 444795
351237 440678
89104 217300
89114 259566
351274 95905
89176 201892
89188 147338
89203 117472
89214 393009
89223 233345
89223 109872
89231 119334
351372 171553
89284 118525
89286 152421
89302 205847
351481 379115
89338 171551
89338 158103
351503 111671
351506 355064
89364 99614
351509 150120
351536 122469
351537 114629
89410 380713
351571 358079
351576 226192
351608 94395
351608 95871
89488 136525
89495 150915
89495 389239
89495 102404
89495 238622
89495 164922
351659 95905
89543 382232
89578 206528
89582 204453
89582 145037
89582 416679
89592 176146
89594 197804
351787 153995
89673 126395
351834 351835
351842 113099
351854 173197
89734 123614
89760 153858
89760 131185
89765 214485
89778 202950
89784 231338
89784 92965
89784 90782
89784 351935
89784 141346
89784 103711
89784 133864
89784 437072
89784 175790
89784 416562
89784 173187
89784 221128
89784 236550
89784 231271
89784 158683
89784 428477
89784 104586
89802 164371
89802 152501
89813 368338
89813 125159
89844 185025
89844 125073
89844 100027
352026 113099
89899 237751
89926 160959
89926 408347
89938 252182
89939 177812
352088 256677
89948 157348
89971 114925
352166 113099
90041 99060
352208 352209
90072 159500
90083 96538
90107 386827
90107 112900
352266 124690
352275 92641
352285 116924
90145 420387
90169 259311
90207 155748
352354 135576
352360 98138
90218 104320
90235 256607
90236 128760
90236 103966
90236 206392
90236 110305
352381 172617
90277 167044
90280 240173
90280 116057
90280 174289
352439 134198
352443 135800
90374 125450
90374 259731
90374 176351
90379 134616
90379 226190
352541 369348
90419 199543
90495 248991
90495 92609
90495 423751
90495 243753
90550 442144
90579 106825
90579 127388
90587 102347
90623 369971
90635 153339
90641 115576
90700 132182
90733 388780
90753 95106
90842 219813
352997 243432
90863 173771
353033 366878
353035 162665
90917 171238
353066 107918
90943 184276
90952 198598
353114 120347
90979 364689
90979 113737
353128 124158
353133 198388
353167 99369
91038 149323
91045 167359
91045 399474
91095 106208
91113 180210
91115 224544
91115 192003
91115 162314
91115 91122
91115 203260
91115 395060
91115 176046
91115 128712
91128 226980
353278 95905
353293 147386
91163 203345
91199 442214
91199 140657
91223 159965
91223 91224
91223 246198
91223 91226
91232 166323
91239 405526
91239 415544
91235 106825
91245 91254
91246 215274
91254 167156
353405 207025
353467 435040
91354 173133
91354 149727
91354 204398
91359 232309
353512 101143
91422 358773
91463 91464
91462 239318
91472 95513
353629 203735
353631 436015
91489 423256
91541 233747
91546 242719
91546 168894
91546 95871
91546 447864
353731 98740
353733 353735
91605 161693
91605 174072
353750 122469
91626 100289
353794 250519
91653 173993
353838 150119
91696 127367
91705 127353
91714 100977
91748 215085
91800 155692
91806 381720
91832 189149
353986 97355
91897 113774
91897 94716
91901 162072
91903 105339
354063 116260
91919 91925
354081 354083
354095 101422
91989 121701
91990 211809
91990 444893
91990 219965
354146 354147
354168 154093
354193 105731
92062 250511
354208 135110
92066 141001
354223 122488
92084 92744
92086 132508
92095 218958
92116 99527
354261 354262
92121 367551
92125 119547
92134 93523
354289 123135
92207 244854
354352 354351
92212 118583
92216 157943
92233 115382
92234 148318
92250 136617
92259 180262
354440 433313
354455 368629
92326 101717
92329 138522
92353 154383
354577 384739
92434 190393
92439 108632
92439 114285
92444 124315
92452 113036
354672 107918
354711 218510
92574 413421
92588 132585
354734 179509
92613 254330
92613 101738
92625 117882
92641 397040
92641 357954
92641 375768
92647 161672
354810 129225
354846 104574
354870 356670
92735 149786
92741 399689
92741 100632
354887 178818
92747 180299
354909 171466
92785 216012
92785 207147
92785 223051
92791 136213
92791 156668
92802 246742
92816 109901
92832 431425
92833 92834
92850 169912
92850 157785
92878 357560
92901 144772
92967 398060
92994 133439
355140 94704
355154 212510
355164 95905
93038 140148
93038 140147
93038 136050
93038 194074
93051 374709
93051 100023
93051 151004
93051 397751
93051 365475
93051 149920
93059 102195
355203 250519
93082 443775
355236 121543
355252 355253
93126 132585
93128 132585
355296 365315
93158 168933
93162 186184
93162 132585
93162 138368
93162 142590
93162 437976
93162 140613
93164 206067
355308 245408
93165 235808
93171 139261
355321 153896
93178 261144
93178 162729
93187 152502
355336 433454
355340 105121
355347 389944
93224 456041
355369 238166
93244 93247
93253 181802
93268 141604
93268 121293
93273 141619
93275 121293
93291 93337
93295 130622
93297 133434
93299 95843
93314 165792
93314 199700
93314 213991
93314 141610
93314 141619
93316 147363
93316 93325
93316 93320
93318 195685
93319 444893
93319 121293
93323 141619
355487 191658
93379 103447
355599 355810
93474 214443
93474 125712
93474 391393
93479 208558
93479 254671
93479 235493
93483 99369
355645 144739
93503 371236
355660 389487
355666 100419
93523 104574
355668 247706
93538 374652
93543 93544
93546 184511
93585 224816
93586 165380
93606 128799
93610 187844
355761 176650
355793 236277
93659 178387
93721 155324
93721 184533
355869 128184
355883 240876
355885 240876
355920 177431
93812 119809
93813 118619
93819 142871
93824 99084
93838 238579
356032 249028
356045 356047
356078 433454
93935 233121
93939 102947
356086 433454
356102 116924
356115 411933
93979 115382
356147 129992
94021 178615
94160 167034
94182 168229
94188 149394
356415 124504
356424 227182
94298 142415
94308 146751
94362 148055
94362 118176
94392 248608
356539 433454
94395 370629
94460 372093
94481 261764
94481 379527
94481 184746
94481 452052
356633 374610
94501 443062
356648 158254
94505 225387
356659 141986
94520 444787
94520 422592
94533 103512
356678 187844
356700 106758
356735 113099
356736 113099
94597 105339
94612 240414
356771 250519
94627 172175
94630 94632
356775 108517
94632 256962
94655 261841
94655 374664
94656 135005
94704 421351
94716 94725
94716 238799
94748 390449
94820 161907
94880 250519
94886 212671
357051 357052
94968 224972
94979 232136
94981 106781
94982 365599
94990 118452
95018 435142
95018 366226
95022 130427
95032 260160
95043 186422
95072 192654
95072 99150
95081 212002
95081 99093
357255 369563
95116 164295
95124 214768
95124 217864
95124 150202
95200 111050
95221 128367
95229 179387
95231 100066
357410 357411
357417 251911
95295 174418
95295 174407
95343 196855
95422 242213
95423 202297
95429 242896
357584 364316
95457 131029
95460 403113
95475 95476
95476 124711
95483 439920
357637 364381
95505 95512
357694 103570
95566 125300
357772 170462
357787 95905
357827 250519
95692 99369
95746 153987
95756 391532
95762 385264
357919 95905
95779 114286
95779 151216
95800 103447
357947 127155
95846 165792
95846 96228
95870 188070
95871 261529
95871 214635
95871 177091
95871 170941
95871 409871
95871 424912
95871 398135
95895 122469
95903 405004
95905 361209
95905 116109
95905 412258
95905 419503
95905 400810
95905 440815
95905 395886
95905 399002
95905 365001
95905 405460
95905 365850
95905 409724
95905 360093
95905 394741
95905 420809
95905 252115
95905 124506
95905 454568
95905 375448
95905 372803
95905 366687
95905 366480
95905 362823
95905 232382
95905 179472
95905 251989
95905 398002
95905 372693
95905 407237
95905 386060
95905 439959
95905 428455
95905 375175
95905 377687
95905 358167
95905 384250
95905 260385
95905 383984
95905 409881
95905 366479
95905 371667
95905 251058
95905 389929
95905 443018
95905 124865
95905 229463
95905 252171
95905 424185
95905 438057
95905 366247
95905 381733
95905 376938
95905 380687
95905 406183
95905 412741
95905 198089
95905 420614
95905 368705
95905 380582
95905 415874
95905 382789
95905 425449
95909 206196
95917 379478
95921 392365
95921 368708
95921 246853
95921 179492
95921 454864
95921 383797
95921 157543
95921 395859
95921 249416
95921 430369
95921 394146
95921 425591
95921 382798
95921 250134
95938 453816
95973 100103
358126 122469
96040 137191
96040 161813
358185 407549
96058 170295
96097 125880
96130 115649
96149 402881
96177 150720
358347 128559
358380 99851
96239 121873
96239 121875
96239 189307
358383 97338
96249 99369
96255 113546
96267 233075
358435 103977
96333 149135
96331 141025
96366 191790
96368 98645
96376 160780
358528 214514
96411 96417
96417 110903
358571 197933
96536 228593
96538 131732
358700 161890
96568 194432
96568 213255
96569 225215
358724 410442
358761 118333
96623 162152
96645 145586
358790 153230
96664 186415
96709 100449
96783 413607
96783 412863
96783 153098
96783 104827
96783 438806
358957 230370
96820 222071
96820 416055
96820 134779
96820 378740
96820 238345
96820 410864
96827 168211
96827 125074
96875 259345
96913 189301
96913 124459
97017 140817
97023 366016
359189 177130
97055 103743
97055 180420
97083 381036
359240 433454
97162 218066
97183 249346
359324 359542
359341 372505
97255 113634
97255 233118
97255 398639
97265 205834
97299 187922
97331 157524
359477 110933
97337 97338
97338 422930
97338 387324
97338 402814
97338 123204
97338 400286
359549 122469
97465 117603
97478 115447
97485 191100
97485 155684
97485 109194
97540 222449
97596 169246
97657 113099
97748 221353
359910 129563
97774 102043
97774 252516
359960 157558
359960 415898
359960 244338
359960 248701
359960 403918
359960 248704
359960 366308
359960 429628
359960 431490
359960 248705
359960 157546
97826 111466
359979 102502
359989 125674
97861 113099
97862 113099
97875 154594
360050 163723
97948 242848
97957 144723
97978 257094
98015 99369
360160 99084
98083 206909
98099 433532
360245 124247
98138 431657
98138 406729
98138 398167
98138 410110
98138 430277
98138 436875
98138 449617
98138 411945
98138 400893
98138 361740
98138 388800
360283 360282
98165 99369
360354 360355
98259 104449
98261 259134
98324 360498
360473 113099
98344 98645
98349 125900
98424 403944
98424 98434
98472 99985
98484 106877
98507 438647
98522 98525
360677 360678
360703 109379
360721 371139
98598 98603
98625 120102
98639 121801
98645 222910
98646 104463
360869 438768
98728 98740
360879 377376
98740 151656
98762 102320
98762 425163
98762 178688
98762 110604
98762 120719
98762 214259
98762 116323
360922 105884
360924 360925
98803 157454
360978 216038
360996 198048
98852 214502
98905 116780
98905 99156
361063 123248
361072 109379
361074 103447
98931 124822
98933 186766
98963 149882
361125 166106
98988 159082
98992 167616
98992 215799
98992 189641
98992 368019
98992 215880
98992 210746
98992 412370
98992 116469
98992 140974
98992 103439
98992 451112
98992 233047
98992 115873
99006 156668
99038 116169
99038 105232
99040 153015
99043 143425
99077 99156
99084 119204
99084 174953
99084 99093
99084 102511
361234 122469
99126 102336
99150 116388
99156 366997
99156 119205
99170 123466
99179 252930
99231 122469
99231 198048
361383 361384
99245 122469
99245 122449
99245 198048
99266 179412
99300 187044
99326 131025
99338 237942
99338 201810
99338 132305
99339 418589
99358 99360
99369 217317
99369 130992
99369 388511
99369 138154
99369 385658
99369 193925
99369 197569
99369 138990
99369 253113
99369 201402
99369 161055
99369 253206
99369 130293
99369 190908
99369 228489
99369 212833
99369 133390
99369 168018
99369 183797
99369 164206
99369 195538
99369 116044
99369 158755
99369 415131
99369 149260
99369 165134
99369 119505
99369 161303
99369 144682
99369 171995
99369 229516
99369 163952
99369 152342
99369 366650
99369 375797
99369 194358
99369 142078
99369 403246
99369 256727
99369 176741
99369 180151
99369 120304
99369 128166
99369 439555
99369 168226
99369 149235
99369 427045
99369 146118
99369 224446
99369 256342
99369 235455
99369 166961
99369 242195
99369 214581
99369 149988
99369 229677
99369 191301
99369 221499
99369 440466
99369 216290
99369 403310
99369 189368
99369 185754
99369 244817
99369 249144
99449 215213
361634 198048
99495 175000
99495 188622
99495 143908
99500 440225
361687 250519
99589 364555
99589 210097
99630 113099
99659 221696
99741 156189
99741 118415
361886 227731
99779 158992
361941 422880
99814 227594
99822 180442
361969 366479
99837 99845
99839 171602
99839 171606
99839 171607
99839 252226
362096 153995
99975 208867
99981 101197
99985 116749
99985 124119
99990 198383
100002 154716
362178 113099
100036 166384
100056 136016
100067 123135
100071 389069
362218 250519
362229 434700
100103 100104
100116 164436
100118 115232
100118 162926
100118 227852
362310 153717
362314 250519
100201 211159
100201 211236
362356 382879
362356 161257
100216 169648
100235 249728
100249 136490
100255 149922
362442 198048
100334 134145
100359 385648
100359 260505
100359 248730
100407 116400
362566 116390
100424 139104
100424 218540
100446 141703
100449 103930
100449 212781
100449 155318
100453 230801
362612 203735
362637 198048
100540 143105
100540 103981
362699 106336
362774 115382
362775 132938
362807 421982
100672 110679
362832 424102
100693 153562
100764 116477
100770 178154
362953 109379
100829 113941
363034 363035
101000 116639
363162 176162
101039 129574
101115 144891
101132 387522
101174 206722
363323 110960
101181 156185
101197 112487
101215 225760
101226 127156
101261 134869
101333 101819
101377 101391
101377 203044
101377 188033
101403 188042
101422 422070
363568 386895
363574 115382
363587 124723
101462 121014
101471 146162
363628 129563
363680 121804
101626 101625
363770 384928
101630 107869
101634 155795
363785 363786
101709 103233
101713 237147
101713 230612
101717 383547
101717 146138
101717 258385
101717 234143
101717 242432
101717 165183
101717 253836
101717 170295
101717 405670
101717 226709
101717 114004
101717 212986
101738 242548
101738 233064
101738 149555
101738 241877
101738 190449
101738 107449
101738 130202
101738 248522
101738 104281
363882 122488
101745 175118
363895 174310
363895 192189
363895 141276
363895 211590
363895 140981
101754 261446
101754 225645
101762 142386
363917 166548
101786 138445
101788 142491
363967 368588
101832 104679
363980 363981
101838 165894
101838 249436
101838 376922
101862 436078
101867 122488
101877 407691
101877 436078
101894 398231
364054 364053
101916 188183
364091 257546
364114 153717
364120 403746
364160 159410
364205 187158
102082 121414
102082 110625
102082 117189
102090 230078
364242 179387
102119 132121
102119 139875
102124 374845
102137 102155
102175 426729
364326 163148
102189 145349
364478 364479
102338 114854
102351 113016
364568 364569
102431 113839
102437 131102
364689 185397
364690 364691
102548 225108
364702 113099
364716 103304
364764 128303
102658 162185
102682 115271
102694 191376
102719 104320
102721 103206
102725 160472
102791 212546
364956 116323
364964 373772
102839 251262
102839 104992
102849 424105
365006 198048
102875 255249
102920 172475
103011 246328
365162 250519
103029 422543
365183 197754
365315 133356
365315 373606
365315 148253
365315 181198
103178 130841
103200 166920
103206 238119
365372 115042
103251 152453
103256 139077
365403 407287
103271 109152
365420 133543
103297 257376
365491 165058
103349 153796
365499 250519
103380 138305
103383 138305
365533 411029
103391 138305
365558 111279
103439 105416
103447 180772
103447 175268
103447 199056
103447 196931
103447 209452
103447 238908
103447 105843
103447 238206
103447 196228
103447 105416
103447 425807
103447 110903
103447 240790
103447 435337
103447 197245
103447 261259
103447 262007
103447 257094
103448 223767
365595 113099
365632 365633
103514 113576
103548 143482
103568 103567
365719 122469
365740 141501
103613 366079
103613 392142
103613 207170
103613 388531
103634 154462
365821 192760
365838 137960
365850 198048
365851 113099
365851 106600
365852 113099
103715 173977
365874 110504
103743 132195
103747 244157
103780 117016
365987 365988
103868 113099
103870 113099
103870 201799
103870 434982
103913 115382
103921 137242
103921 137287
103921 137321
103921 137240
103921 137272
103921 137283
103921 137307
103921 137306
103921 137328
103921 137279
103921 137271
103921 137249
103921 137290
103921 137241
103921 137297
103921 137322
103921 137263
103921 137331
103921 137246
103921 137284
103921 125946
103921 137325
103921 137296
103921 137302
103921 137308
103921 137313
103921 137324
103921 137264
103921 137285
103921 137311
103926 159324
103950 140870
104014 197226
104013 414862
104050 190896
366203 162229
366226 146773
366226 211753
104104 177165
104109 112325
104109 235794
104116 150073
104118 253613
104200 159440
104248 122870
104265 453547
104265 230774
104265 450106
104269 115649
104282 151406
104282 390610
104281 107449
104320 131093
104320 237727
104320 259150
104320 259151
104320 193880
104320 104324
104354 104358
104381 159358
366595 366596
104479 407911
366685 153230
104542 161557
366695 150073
104567 424913
104574 232006
104574 203450
104588 113099
104590 249830
104679 169637
104679 238178
104692 132488
366871 391709
366926 161907
104784 177218
104782 143027
104782 141051
104782 142873
104782 177238
104782 225195
104802 368080
104815 144644
104845 115815
367044 129445
104904 389861
104904 426432
104911 104912
367064 154093
367111 396512
367131 120347
104994 104996
104994 105000
367180 128559
105040 440660
105048 194791
105059 113099
367217 240196
105077 195318
105089 190653
105111 105112
105121 157101
367267 147178
105135 134319
105135 245253
105160 113099
367346 122488
105339 189235
105356 132440
105360 198015
367506 120742
367535 367536
367558 197754
105418 119213
105491 212966
367674 250519
105538 152697
105539 371139
105559 109154
367713 250519
105569 180680
105587 238395
105587 170495
105587 250841
105623 245610
105632 378170
367811 238589
105669 375708
367829 150927
105709 108244
105722 188240
105728 199261
105814 111402
367995 251965
105864 111528
105881 121300
105884 213669
105890 148687
105888 148687
105939 188032
368114 254581
368116 260790
105984 219273
106046 440658
106051 128458
106088 177002
106089 108608
106110 156529
106109 128559
106117 117340
106121 368916
368280 368279
106141 157065
106141 256067
106167 191796
106183 128793
106203 451299
106209 175410
106209 182011
106253 106254
106266 133268
106294 222649
368467 398421
106330 247007
368506 128559
106415 106417
368576 373669
368577 246312
106439 184837
106460 118966
106477 175274
368629 417537
368629 430172
368629 450886
368632 253143
106503 124247
368666 250519
106523 163750
106567 182011
106568 138972
106592 179149
106600 448943
106601 113099
106645 199694
368896 113099
106758 407246
106758 405091
106758 375156
106758 119820
106758 391622
106758 205365
106758 424598
106758 222120
368914 130135
106774 209423
368929 250519
106787 178600
368938 198048
106803 109281
106804 433244
368964 434655
106825 392011
106825 409797
106825 203571
106825 178604
106825 221269
106825 257101
106825 393129
369005 189466
106877 454193
106893 224225
369056 176668
106957 181461
106960 113863
107001 186924
107020 209954
107027 183734
107086 114883
369235 240414
369243 369244
369279 170960
369330 161374
369340 198048
369348 207570
107208 394263
369401 205994
369443 113822
369451 192139
107318 111544
369528 192581
369553 371798
369562 370757
107425 119646
107467 120347
107482 115279
107520 187570
369668 112048
369683 146298
369713 225393
107577 108203
369746 122469
369777 157719
369779 369781
107639 407696
107660 169544
369843 380488
107713 171163
369900 244159
107791 112328
107808 210376
369985 116924
107842 208312
107841 157580
107895 128626
107908 153717
107918 116584
107918 209956
107918 120676
107918 113136
107918 446376
107922 147247
370091 113358
107961 177673
107972 233706
108059 147876
370212 240876
108088 170411
370265 238799
370310 380757
108184 191567
370348 252440
108210 250927
108212 144199
370389 406741
370448 375393
370459 240876
370500 250519
108383 177298
370677 257620
108585 208260
108607 181225
108607 233867
108607 441989
108607 140110
370753 261993
108617 123790
370877 250519
370885 151438
370968 161672
370978 112034
370987 165058
370987 113099
108869 132002
108887 259157
371059 202311
371061 117858
108932 112754
371106 120347
108984 109013
108988 111528
371139 373797
109002 109013
109013 111478
109013 111467
371190 120159
371226 113099
109088 119549
371235 173324
371320 133572
371323 402764
109191 243398
109191 158258
109191 194030
109191 162108
109191 373269
109191 160242
371341 129563
109195 180855
371349 444153
371349 417761
109211 144574
109235 113095
371397 123135
109257 200938
109267 180078
371412 113099
371420 198048
371422 198048
109296 383565
109315 113315
371480 186931
371500 152812
109372 193331
109379 176209
109379 221481
109379 435302
109379 239602
109379 197194
109379 448916
109379 423904
109389 450829
109399 215513
109399 414029
109429 140659
371576 183613
371592 181282
371631 122122
109588 132442
371753 259879
371754 259879
109629 135145
109637 134401
109662 236406
109701 391655
109721 179733
371912 371913
371956 250519
109824 163231
371970 186789
109884 113520
109884 124534
372042 259699
109973 137451
109975 187844
372125 377627
110049 201574
372233 188491
110185 113932
110195 183097
110290 220058
110372 203654
110412 182023
110469 128559
110469 403308
110474 243370
372628 127934
110497 162766
110507 113099
110512 132176
110622 170797
110623 120719
110647 132625
372805 198048
372817 206624
372826 186820
110690 404288
110702 111298
110714 110715
110716 453900
110715 198061
372884 250519
372909 453149
110801 377485
110801 136309
110830 228591
110845 129290
110903 141619
110903 180351
110903 398000
110903 198158
110903 150890
110903 450335
110903 173809
110903 441430
110903 191924
110903 165344
110903 256687
110903 215055
110903 117181
110903 221491
110903 189336
110903 186969
110903 139178
110903 153741
110903 238236
110903 111031
110903 197713
110903 171116
110937 190968
110962 139592
373152 112147
111023 376922
111029 387005
111071 217199
373265 196776
111188 177311
111188 119336
111240 208502
111256 193957
373407 113099
111328 416666
373502 141501
111403 194591
373574 146521
111466 217199
111474 217199
111493 217199
111533 400693
373705 198048
111571 111572
373721 373722
111641 146061
373797 437913
373811 168911
111672 381625
111672 234019
111675 406003
111726 128119
111727 153570
373884 222483
111759 119324
111798 201132
373989 120742
111864 112550
374017 374018
374025 251475
111887 415569
111895 148860
374041 136698
374068 132404
374128 163723
374137 116924
111995 235501
111995 145287
111995 152393
374153 397731
112048 239268
112048 260699
374194 198048
112050 382535
112050 146292
112050 407311
112050 241913
112050 443189
112050 384698
112050 252206
112050 241006
112050 382635
112050 449322
112050 433853
112110 196081
374428 129563
374429 129563
112319 136233
112435 208766
112503 448913
374659 374658
112555 132763
374730 177139
374772 387418
112676 115447
374822 128559
112696 407212
112739 115382
112761 123452
112790 206573
112805 188858
112819 222649
112820 132547
112820 196550
112822 408762
112828 220445
112860 179113
375032 190808
112944 200240
375119 128559
113008 444723
375184 122468
375203 375204
113099 429281
113099 385057
113099 417788
113099 212151
113099 433037
113099 418800
113099 432998
113099 210425
113099 156578
113099 418435
113099 441343
113099 438625
113099 380825
113099 376341
113099 437460
113099 412162
113099 414369
113099 127844
113099 413053
113099 203294
113099 404951
113099 406651
113099 418929
113099 401204
113099 157911
113099 189277
113099 208799
113099 261763
113099 389058
113099 404487
113099 402803
113099 229751
113099 398621
113099 208767
113099 429944
113099 385176
113099 189274
113099 240966
113099 407477
113099 145171
113099 197544
113099 432891
113099 419956
113099 387701
113099 411941
113099 147031
113099 376940
113099 139094
113099 432900
113099 435864
113099 197546
113099 189279
113099 395141
113099 391585
113099 189275
113099 190100
113099 156579
113099 135751
113099 447998
113099 250364
113099 383120
113099 222625
113099 426209
113099 432755
113099 381541
375263 406817
375263 394390
375295 187401
113156 132041
113156 115382
113160 172118
113194 174522
113223 144330
113223 208754
113231 196658
113242 149469
113310 260602
113315 230736
113315 390786
113315 132212
113315 203097
113315 172920
113315 443556
113360 155758
113360 151330
113360 255782
375540 195232
375553 183706
113428 162858
375626 250519
113517 247534
113517 260258
375664 442667
113522 113526
375708 135219
375735 186924
113598 146460
375840 387111
113737 168255
113737 140745
113775 187295
375956 129563
113817 146241
113829 119091
375997 198048
113863 141390
376013 128097
113894 186820
376053 406543
376057 189053
113915 196617
376065 187844
376140 409984
376171 376170
114074 119038
376244 404499
114146 150716
114208 114290
114208 167593
114243 152808
376424 121553
114289 141413
114324 385376
376540 376541
114415 258229
114415 437617
114415 454212
114415 148011
114433 129070
114443 145628
376682 230285
114541 246082
376736 198048
114630 416515
376820 146299
376836 128559
114705 428032
376850 410442
376882 116683
376972 203735
376972 206628
114835 115307
114835 166059
114853 129208
377021 240414
114955 167245
114963 121739
377119 382598
377119 394259
115016 148672
377163 132002
115042 151068
115042 413598
377190 250519
115074 433454
115074 121293
115074 254611
115087 165522
115113 115117
115123 210875
115140 255132
377326 120347
115232 181526
115262 176627
115271 170247
115277 177396
115277 115279
115279 177396
377426 177802
115285 203863
115292 131729
115326 132041
115376 197456
115382 412479
115382 379465
115382 124644
115382 200979
115382 145582
115382 138691
115382 177154
115382 223055
115382 230807
115382 389203
115382 245576
115382 191470
115382 246813
115382 233280
115382 385156
115382 130817
115382 190630
115382 174256
115382 445624
115382 212910
115382 259923
115382 190205
115382 446136
115382 195217
115382 177173
115382 127109
115382 120985
115382 178369
115382 137575
115382 431913
115382 424364
115382 141813
115382 204327
115382 412709
115382 211541
115382 243354
377569 122469
377570 122469
115450 226929
115453 207241
377638 400304
377724 190676
115649 168144
115649 212284
115649 126519
115740 115741
115809 175996
115817 205837
115929 444854
378105 118561
116015 121553
378187 118172
378215 213195
378233 170960
116103 172199
116108 122488
116131 249574
116182 116683
116187 160725
116239 149922
116260 120661
378437 168541
378445 241904
116303 117811
116304 201394
116304 141164
116304 198012
116304 162017
116304 161907
378454 171951
116323 119358
116323 178688
116323 243237
116323 141715
378521 242875
116388 418485
116390 135579
116395 404499
378544 137404
378555 250519
378609 206051
116501 206631
378652 379996
116523 209530
116523 183552
116526 124168
116555 417391
378749 166548
378784 249201
116643 133936
378917 151590
116809 195809
116860 116862
379012 250519
379028 250519
116924 386904
116924 435359
116924 150286
116924 451685
116924 429242
116924 416524
116924 450329
116924 394793
116924 436603
116924 150411
116924 423798
116924 437812
116924 429569
379078 217194
379113 379114
117030 117034
117033 185195
117034 185189
117034 185198
117044 185195
117063 250433
117108 117111
379251 410991
379251 386946
117134 159324
379286 381449
379363 186310
117250 150405
379437 395023
117323 221259
117340 131992
117340 413987
117340 131668
117340 162342
117343 221116
117359 119213
117361 173368
117420 157715
117436 125598
117439 169517
117454 189095
117460 159168
117460 136565
117470 204709
117470 117472
117567 389957
117567 184251
117567 434505
117567 404316
117567 414072
117567 408641
117567 200036
379726 156055
117650 166548
117680 427458
379825 196658
379825 188079
379825 230245
379825 131025
379825 445771
117694 146450
117712 248035
117712 413626
379879 161907
117738 117737
117804 121347
379960 429164
117828 204233
117858 440008
117858 252383
117858 167922
117860 149875
117874 163140
117940 385772
380141 190792
118065 242619
118088 175111
118102 255950
118132 137805
118163 158115
118166 193649
118172 398785
118245 227712
118263 159985
380418 190160
118313 218956
118406 159985
118420 143752
118421 246550
118435 261904
380695 216246
118573 150773
118583 181690
380761 380762
380799 252016
118668 126902
380827 173467
380827 399172
380835 421968
380879 147178
118737 159239
380889 158876
118784 172821
118838 129225
118927 250519
119068 123595
381265 147241
119156 142394
381343 171466
381344 140641
119250 119251
119297 129837
119318 255310
119359 150318
119377 256507
119418 139819
119441 137503
119463 426385
381664 207194
381675 444685
119548 132509
119548 132508
119605 163746
119626 399433
119692 255964
119754 422321
119805 143000
119820 123135
119835 152662
119956 403972
119958 182607
382156 170960
382182 452597
120058 176985
120058 133126
120116 185722
120135 120137
120139 396573
120154 411825
120159 427573
120197 151112
120347 215118
120347 416825
120347 132049
120347 394541
120347 216224
120347 243726
120347 164504
120347 258907
120347 409223
120347 219802
120348 418242
120348 248364
120348 123417
120374 225875
382567 130099
382587 160803
120489 388046
382682 402926
120540 120563
382700 382701
382748 122469
120631 236071
120631 204453
120664 120667
382847 221267
120719 159806
120719 188643
120742 408652
120742 402499
120742 408676
120742 386763
120742 394301
382937 191665
382960 137960
120900 129609
383145 410141
121047 183032
121046 175522
121058 236093
383210 166095
121076 157594
121076 143984
383308 250519
121183 184378
121236 434365
383408 154093
383414 161023
121272 139769
121291 149116
121293 141614
121293 141602
121293 181802
121293 160051
121293 147363
121293 254611
121293 411144
121293 384471
121293 161827
121293 219747
121293 141604
121293 404747
383474 250519
121358 168802
121358 203206
121414 135337
121414 205514
121414 140573
121414 216018
383573 168879
121458 174560
121477 170369
121486 221688
121493 196951
121553 409724
121553 384116
383759 141501
121684 178744
383833 434840
121739 204308
121739 163017
383899 383900
121752 125718
121801 179799
384068 215575
384131 133538
122018 174121
122033 142452
384194 384197
122064 157491
384211 219262
122090 132779
122140 161980
122144 218979
384444 122449
384466 122488
122449 453960
122449 409423
122449 417332
122449 402531
122450 174805
122456 436094
122459 198048
122459 122469
122468 436761
122468 390848
122468 241991
122468 260915
122468 257409
122469 404725
122469 146286
122469 445645
122469 248747
122469 397467
122469 418008
122469 421640
122469 199184
122469 260915
122469 177801
122469 434167
122469 201163
122469 241991
122469 385501
122469 435735
122469 403218
122469 177805
122469 434854
122469 433712
122469 198059
122488 175012
122488 223179
122488 203106
122488 180726
122488 406483
122488 154032
122488 252183
122488 402465
122488 452525
122488 259816
122488 124862
122488 174531
122488 215583
122488 223669
122503 206673
122544 160310
384731 384856
384788 124504
122647 148660
384806 250519
122672 139269
384837 262018
384838 162766
384844 384845
122706 220524
122786 417919
384937 166095
122811 142654
384961 185010
384982 198048
122870 157104
122870 192508
122870 127469
385076 198048
122978 435040
385146 387740
385188 421605
123056 188384
123084 135538
123095 138457
385264 150762
385275 129563
123135 181449
123135 252830
123135 138057
123135 185175
123165 184994
385387 239407
123247 203735
123247 157359
123248 205969
123248 199877
123248 179509
123248 228173
123281 123782
123308 136482
123319 442313
123346 165509
385533 217199
385543 180649
385566 385567
123474 230534
123484 150906
123505 123507
123516 125399
385678 385679
385714 124257
385749 198048
385752 203735
385759 187916
123624 186793
123656 216227
123714 171129
123790 209613
385956 397497
123911 178054
386098 198048
123991 221084
124012 128559
386191 131243
124058 255402
386319 179125
386320 425718
124189 247646
124201 209197
124244 150927
124247 389626
386397 176100
124257 158682
124257 208813
124266 153002
124359 249190
124385 215763
124459 435058
124504 244504
124504 254133
124506 230569
386651 386650
124534 134326
124534 178788
124534 410759
124534 416522
124553 153562
386697 197635
124569 393469
124587 128231
124603 162935
124614 181632
124624 241837
386814 146299
124670 210760
124718 145051
124718 158061
124723 397038
124723 440364
386894 386895
124761 176242
124774 438595
386923 230618
386938 148647
386972 250519
386990 411934
124850 136913
124850 390899
124850 192866
124878 132774
387046 387045
124924 442144
125037 142873
125039 222348
125040 225789
387200 204743
387243 198048
125211 129994
387375 188591
125270 419575
125270 213958
125291 391498
125313 210652
125321 396151
125353 399848
125356 444755
387522 209683
125407 171142
125504 125509
387719 250519
125620 128559
125666 171295
387853 211126
387853 221351
125755 222169
125760 128143
125880 149662
125880 175387
125900 237860
125900 235273
125900 419168
125946 137246
125946 137321
388163 407099
126155 438955
126179 254206
126181 245692
126181 178770
126181 246396
126195 246685
388352 250519
126212 190599
388511 138990
388517 128559
126429 137859
126429 244988
126429 137856
126457 198973
126464 212288
126510 132195
388656 219989
126537 151460
126541 431160
126630 146495
126642 142986
126644 159019
126644 206227
388852 445458
126729 222373
126738 189047
126803 242131
388951 388950
126881 149595
126932 234676
126945 168372
127039 177160
389188 213610
127075 255379
389230 389232
389253 198048
389309 231578
127174 145333
389364 202449
127259 127580
127286 158170
127286 440743
127286 167245
127295 194464
127356 217996
127465 201327
127468 127469
389632 389633
389677 198048
127660 234072
127741 151729
127749 162509
127782 433454
127965 259060
127966 453288
127966 215030
127975 450319
127981 143214
390215 250519
390216 134951
390253 206628
128146 163361
128195 174867
390367 220468
128240 214645
128259 433454
128266 260841
128303 227935
390540 390541
390541 390542
128405 128407
390549 198048
390559 235881
390569 408145
128458 146153
128459 226997
128559 223759
128559 226103
128559 202626
128559 157666
128559 194566
128559 424639
128559 172884
128559 407839
128559 262093
128559 184894
128559 412050
128559 140133
128559 394651
128559 402108
128559 234334
128559 401241
128559 405407
128559 136054
128559 418583
128559 145474
128559 198501
128559 412012
128559 440173
128559 451035
128559 260995
128559 432367
390709 443721
390711 256815
390880 390881
128789 454126
128790 188427
390940 165058
390945 233050
128915 177264
128949 156324
391102 131339
129022 129023
391182 198427
391190 250519
129070 142946
129084 184888
391250 165058
391284 165058
129174 138327
129225 442282
129225 439996
129245 395271
129259 129262
129259 171327
129264 180247
391459 214530
129445 188032
129446 188032
129502 258720
391670 167695
391672 154093
391673 132002
129542 428417
129558 215881
129560 155865
129563 437352
129563 204259
129563 420394
129563 261758
129563 238820
129563 215367
129563 400569
129563 220719
129563 249697
129563 404894
129563 218774
129563 233111
129563 440928
129563 400571
129563 444056
129563 422535
129563 446106
129563 421493
129563 417497
129563 420800
129563 418473
129563 229321
129563 451391
391773 411082
129778 144061
129867 421777
129905 397385
129905 170301
129928 247349
129930 156830
392078 243193
129960 208461
130042 191376
130093 205428
130198 223138
130215 144739
392457 147178
392467 260093
130339 158952
130397 169467
130397 169499
392598 394847
130553 144544
130622 188249
392827 204252
130742 232996
130772 168933
130776 167126
393014 444679
393014 440716
130872 143680
130906 259952
393065 245580
131005 131008
131085 205090
131149 149628
393296 198048
131169 235089
393437 188983
393472 395239
131336 131351
131376 221876
131376 221481
131386 233212
131452 224822
131527 423530
131562 195822
393749 428889
393765 191458
131624 131631
131629 152996
131646 156605
131731 132041
393985 407573
131880 211036
131971 132359
394121 163723
131990 131995
132002 420518
132009 164753
132020 144478
132021 148858
132024 144918
132041 252466
132093 226542
132162 148860
132203 212737
132226 149880
394390 394392
394392 406817
132270 140313
132270 144969
132270 140364
132403 253007
132421 132425
132437 142148
132446 212864
132492 132502
132493 180917
132493 217815
132494 133974
132498 132502
394660 169497
132572 168577
132585 232237
132585 143530
132742 225588
132832 164151
132874 233684
395023 137856
395054 214846
132958 438647
132958 217533
133088 173125
395255 398207
133265 250519
133282 155453
133300 450541
133309 211642
395459 395460
133411 427343
395575 235925
133434 137199
133434 224875
395638 395639
133538 154827
133545 195352
133572 138155
133595 133598
133767 226897
395933 402874
133794 166397
395980 250519
133864 164299
133864 440655
133887 140659
133918 135110
133974 232618
133974 194068
396122 396123
396169 451859
134053 149094
396243 396245
134202 134323
134202 175153
134202 175140
134224 134225
396512 254986
396526 396528
396574 442039
134476 160212
134476 207361
396685 250519
134595 167729
134624 140894
134647 152809
134674 179048
396868 396869
134833 134835
134835 240827
134890 140659
397066 250519
134951 429709
397217 440583
135086 135088
135087 135088
135110 141935
397306 203735
135196 200591
135337 222061
397485 217199
135352 211928
135474 201020
135547 170103
135603 214358
397789 154093
397849 430606
135817 148860
397982 397983
135876 135877
135920 135949
136012 250519
136111 168495
136176 260841
398344 213362
136236 213061
136236 258260
136236 221026
136238 195701
136312 197309
136333 197309
136360 153717
398530 226734
136490 246396
136490 136502
136490 247993
136508 258774
136525 161670
136525 172909
136565 139804
398709 199005
136582 152697
398777 401334
136652 249139
136656 170521
136698 445895
136771 181681
398925 177050
136791 209179
136913 136919
399203 204725
137086 205195
137099 185801
399280 198324
137160 137161
399309 147178
137203 159244
137203 141627
137227 171808
137237 137271
137237 137321
137237 137246
137240 137271
137240 137321
137241 137321
137241 137271
137241 137246
137242 137311
137242 137307
137242 137246
137242 137263
137242 137271
137242 137328
137242 137306
137242 137296
137242 137321
137246 137271
137246 137284
137246 137264
137246 137309
137246 137307
137246 137322
137246 137321
137246 137330
137246 137311
137246 137325
137246 137273
137246 137324
137246 137272
137246 137296
137246 137306
137246 137285
137246 137302
137246 137251
137246 137319
137246 137308
137246 137290
137246 137249
137246 137328
137246 137279
137246 137287
137246 137297
137249 137321
137249 137271
137263 137321
137263 137271
137264 137321
137264 137271
137271 137297
137271 137311
137271 137306
137271 137273
137271 137272
137271 137309
137271 137319
137271 137321
137271 137296
137271 137328
137271 137307
137272 137321
137273 137321
399419 250519
137279 137321
137283 137321
137284 137321
137285 137321
137287 137321
137296 137321
137297 137321
137302 137321
137306 137321
137307 137321
137308 137321
137309 137321
137311 137321
137319 137321
137321 137330
137321 137325
137321 137328
137321 137322
137321 137324
399561 399562
137424 232819
137451 189217
137451 230368
137451 146203
137483 408321
137489 218983
399702 199192
137563 245707
137566 259072
137628 137636
137660 137662
399810 399811
137697 198278
137788 157955
137788 406148
137788 151570
137876 202419
137934 138095
137960 452962
400136 202410
138036 433454
138055 405874
400258 250519
400314 400312
400324 236766
138203 145122
138242 211080
138242 451023
138242 174508
400421 400423
138301 138303
138305 242855
138305 148628
138315 138327
138327 407107
138327 215575
138327 257901
138327 424155
138464 223789
138464 197900
138513 186716
138513 188313
138522 161049
138595 149922
138644 221161
138682 207356
138682 260902
138717 199744
400882 220468
138754 157921
138810 138812
401291 250519
139193 193395
139234 171322
401501 401502
401514 204335
139387 148749
139405 149469
401590 234713
139563 143359
139702 227066
139724 237445
401877 257226
139746 161047
139748 144008
401914 203735
139874 259730
139913 213190
139990 190705
139991 427519
140007 182316
402196 250519
402227 429264
140104 255409
402342 183224
140248 173447
140265 166494
140285 258917
402516 197754
402540 428891
140461 429323
140500 234073
402739 261128
140607 165058
140629 146085
140659 234432
402886 175064
140744 258580
140753 260210
140851 208641
141048 149041
141051 181690
141079 240182
141351 171110
141434 429330
141434 161474
141445 142986
141501 176160
141501 176600
141501 429518
141501 428848
141501 410168
141501 239574
141501 202591
141501 188596
141550 229935
141610 141853
141612 158278
141619 194513
403848 403849
141776 160757
141824 193184
141991 426851
142132 243741
404496 149637
404496 192967
404499 430989
404499 177829
404511 147178
142394 183127
142410 142411
142423 210388
404612 404614
404613 404614
142491 175622
404734 404736
404734 404735
404785 163723
142680 257464
142722 192813
142730 172116
404918 240331
142809 174884
142810 203431
142836 260762
404981 147178
142839 155151
142864 142986
142865 149039
142894 228523
142895 181690
142915 149034
142921 143027
142939 222338
142939 143224
142962 174972
143012 203431
405157 405158
143055 174873
405230 227594
405244 173197
143197 164048
405426 162323
405477 227594
405519 405520
405528 440672
143434 406124
143581 156926
143583 224471
143583 199142
143680 153088
143680 420583
143752 241598
143783 447431
143862 168969
143919 420313
406073 172459
143929 231574
143961 242740
406113 215273
144099 157278
144099 144100
144099 216271
144115 229528
144129 429535
406342 194069
406352 153717
406410 240414
406418 215583
144311 144315
144339 250519
144551 190181
406748 187844
144638 213148
144740 154462
144787 235701
144796 173197
406945 155644
144853 247295
144977 250519
144985 144986
145062 197941
145134 230139
145168 242554
145218 239272
145276 204925
145341 175996
145349 259549
145349 190001
145349 239667
145349 455972
145349 238937
145369 452536
145369 155580
407520 198048
407620 255846
407624 162210
407707 154462
145628 159985
145628 243263
145671 147661
145757 222130
407934 186834
145816 257362
145836 196658
145869 216246
145996 189696
408150 211809
146026 198048
146027 146031
146053 186810
146066 171398
408212 250519
146161 170842
146174 251691
146194 201550
146259 261239
146261 249180
146287 438539
146299 452380
146338 425605
146338 436859
146440 189336
146480 196994
408679 188029
408832 435901
409039 148258
409039 197279
146956 178318
147017 171163
147135 187844
147156 151552
409310 216016
147178 415396
147178 253709
147187 148860
409346 419063
147241 177392
147241 421747
147241 205389
147255 147324
147255 147322
147316 147317
409461 409462
147357 199142
147484 147485
147663 157340
409895 249573
147822 435928
147822 147825
410188 190676
148055 181044
148073 157921
410250 157539
410338 153995
148240 148253
148258 195315
410442 201573
148318 171798
148319 220468
410512 432946
148374 155588
148425 228103
148436 204709
410590 240652
148501 195533
410675 196776
148581 211053
410727 221292
410777 452216
148641 148643
148645 148647
148646 148647
148647 222353
148687 244779
148732 152038
410877 250519
148835 212881
148860 160701
411036 234602
148926 184463
148953 440701
149052 166886
411253 415292
149251 244854
411422 250519
149287 149290
149342 180318
411588 418453
149468 187523
149524 256059
149526 149527
149548 175833
149557 187034
411730 228546
149595 162505
149637 192967
149637 215486
149651 245637
149701 212194
411848 198048
149744 149748
149751 217458
149772 159500
149812 171094
149812 172425
149922 160522
412104 415192
149983 215090
150033 247231
150033 170295
150033 199985
150062 212881
412284 203735
150143 219917
412318 238652
150182 198048
150192 198048
150289 243754
150300 237616
150305 157650
150341 157735
412543 179509
150527 154645
412678 425425
150704 250519
150719 161434
150769 197954
150771 225784
150815 232304
150815 206424
150927 252791
150927 413983
150961 163476
150992 254822
151084 159197
151111 151112
413346 203735
151221 223482
151271 227891
151334 151335
413485 250519
413505 250519
413506 413507
151389 189411
151460 204377
413681 179050
151541 436901
151552 172821
151729 153181
413913 240450
152046 177431
152046 184674
152096 200373
152096 200363
152096 200376
414328 414329
414329 414330
414340 229078
414393 414394
152273 165212
152363 251662
414756 250519
152682 251611
152702 240000
152713 447284
152718 188032
152719 197929
152745 422319
152772 250301
152808 211165
152912 259791
415096 198048
415125 198048
415192 438209
415222 198048
153318 198048
153331 198048
153400 214935
153425 153430
153433 216400
415603 176997
153596 164355
415799 415800
153717 246536
153717 172885
415994 240876
153896 194872
416059 208225
153959 188032
153964 153969
153964 255031
153964 180175
153985 177617
153995 170031
153995 226777
153995 259300
153995 169786
154043 177812
154093 426704
416280 433634
154211 206967
416384 165058
154250 164465
416395 416394
154254 197602
154260 239760
416518 430064
154383 224887
154438 240450
154458 248184
154462 255163
154462 190700
154462 234779
154462 240288
154462 260562
154462 221837
417018 198048
154909 210900
154914 158809
155002 162343
155016 211110
417245 250519
417281 198048
155151 204913
417320 190160
155325 188413
155398 250519
417559 417560
417581 417582
155498 155502
155519 446549
155540 176004
155588 188755
155677 220182
417907 198048
417957 247335
418020 199877
155925 155926
418088 418089
418109 418108
156076 246014
418320 198048
156197 212928
156277 161907
418479 238874
418502 249653
418571 157541
418589 181882
418600 170432
418633 250519
418669 170038
156687 221037
418888 418889
156745 166548
156841 250519
156854 156855
156904 181396
156949 250841
419096 419098
157004 419279
157131 198048
157176 243238
157194 194034
419344 228711
157203 166920
419391 231990
419429 429730
419432 183237
419435 170960
157338 180417
419482 198048
157348 447868
157356 157359
157359 230569
157359 180527
157359 192307
157359 257409
157432 191254
419580 187324
419668 419669
157562 259649
157562 232658
157594 184674
157594 177431
157919 157921
157921 251471
157943 166855
420213 219634
158085 182158
158103 171553
158125 261724
420337 245900
420393 244692
158288 162152
158340 216246
420505 239991
158382 224873
420561 433016
420658 191699
158634 198048
420798 250519
158671 175211
158682 164352
158686 236788
158706 178600
158749 165383
420960 250519
158851 183021
158937 220920
158964 219305
159016 197958
421220 197954
159186 242348
159197 240293
421351 435051
159297 217636
159312 219273
159324 191049
159324 173783
159324 160481
421492 198048
421510 250519
159410 451221
421565 438623
421621 250519
159482 235127
421637 445140
421643 444800
421643 444747
159511 166304
159611 168444
421834 177617
159713 256789
421917 432128
159824 233015
422171 433454
160039 160064
160039 164226
422355 250519
422440 170030
160395 197140
422646 203735
160507 217483
160541 216825
160541 192904
422760 435555
160624 183404
160655 210799
160709 160713
160750 160776
160961 252105
423158 250519
161017 198048
161067 247677
161085 221469
423243 423244
423248 423249
161107 217634
161118 161125
161127 187931
161228 161232
161273 214575
161273 223360
161276 161277
161300 161302
423539 207849
423617 178488
161570 202110
423748 165058
161672 435883
161672 196641
423817 220648
161680 426848
423875 198048
161907 171681
161907 195541
161907 440456
161907 217660
161907 187812
424236 170808
424238 214725
424238 444174
162147 194526
162185 245742
424367 250519
162228 196390
424443 250519
424465 250519
162407 253190
162456 165223
162536 250519
424730 250519
424888 239407
163049 163051
163093 173197
425252 246884
425252 452626
163117 434859
425275 173054
163140 174511
163154 437364
163154 181602
163162 433454
163170 171163
425628 226120
163753 163765
163833 204252
163912 203549
164010 211776
426161 449392
426280 250519
164151 168933
164212 233675
426390 250519
164330 170481
164356 238173
164369 228719
426554 444337
164413 209613
164453 241743
164471 183897
426721 166714
164600 164601
426786 250519
164665 251730
164694 195849
426842 198084
426925 426926
426961 447561
427007 217199
427036 185194
427166 427165
427186 427185
165050 212373
165058 433839
165058 455121
165058 452535
165069 253190
427274 427275
165183 179812
165284 170123
165301 229238
165348 238561
165361 189573
165532 226089
427760 427761
165741 195868
165846 171322
428166 223110
428166 213939
428166 447158
166095 170495
166107 198048
166148 240450
428387 209781
428504 198048
166379 205584
428555 454096
428571 226526
428612 195383
428614 250519
428620 428621
166478 249472
428623 198048
428629 222088
166548 190729
166548 243045
428779 432915
166842 250519
166861 202040
166884 252893
166928 230291
429140 250519
167016 249499
167110 198338
167192 192760
167245 194416
429523 250519
167381 186177
429555 205983
167424 249031
167478 202539
429672 433446
429711 171322
167575 235666
167575 209622
167606 255846
429815 250519
167842 169546
167919 188291
167959 167964
430115 430116
168168 190676
430347 193256
430515 250519
430545 182935
430595 206628
430646 218742
168581 172972
168619 223714
168809 209230
168825 203168
168916 177483
431172 433454
431194 261904
169093 261402
431370 250519
169246 232422
169246 182131
169246 234045
169287 200764
169287 257857
431511 219063
169392 230170
169451 169452
431669 446513
431687 203735
431817 442449
169706 228306
169728 169730
431916 431915
431919 250519
170071 170073
170071 174358
170071 170075
170079 205056
170286 170288
432438 250519
170294 252780
432511 433454
170406 174267
170453 170455
170549 232633
432705 186177
432737 432738
170611 175612
432773 432774
170807 226510
170808 450751
170808 256524
433062 255646
170960 232131
171050 250519
171049 250519
171163 222161
171163 241396
433320 220468
171195 245891
171244 203083
433447 201475
433454 189631
433454 258468
433454 179024
433454 205648
171315 244641
171466 253074
171466 442256
171511 254737
171747 241263
171782 206064
171821 237693
433968 206154
172002 194242
172160 172161
172226 190509
434429 250519
434449 240876
172315 250519
172328 221982
172459 217000
434806 191078
172972 248458
172972 197443
172997 204716
435324 178192
435419 190676
173391 173399
173391 173398
173415 250519
173467 204358
435927 435928
173828 218248
173840 180016
436015 452273
436015 444371
436026 436027
436078 180734
174004 210927
174131 174132
436392 250519
174442 177111
436595 196855
174496 211809
174620 192431
174750 214542
174900 189216
174900 175394
174900 197440
174951 174959
437104 239068
174972 177238
437203 238874
175080 183049
175211 223295
175268 215575
175339 246420
175396 182011
175455 200590
175567 250519
437910 204110
437933 437934
175933 248567
175943 205216
175977 189441
438145 204957
176023 179225
176216 444688
176241 204709
176341 250519
176388 250519
176402 198048
176415 452535
438621 238874
176630 210255
438922 189241
176997 256107
439184 224077
177111 250519
439287 240876
177160 177165
177160 177169
177184 224931
439356 250841
177233 216466
177238 206221
177238 237623
177272 189884
439541 446454
177431 249391
177617 181472
177709 190254
177709 211544
177709 237950
177805 198048
177812 234609
177812 261978
177812 210591
177812 207592
177812 230582
177817 444916
177979 177981
178005 240450
440178 442752
178084 241048
178084 187179
440424 234988
440430 250519
178353 221342
178369 231280
178387 211993
178468 240450
440634 182891
178506 246712
440654 179379
440659 452216
440684 183782
440704 199033
440715 251818
440727 231683
178634 250519
178653 228726
178697 217458
178818 249423
178826 213735
179085 188914
179258 217525
179258 206205
179322 250519
179387 193235
179410 218696
179509 191446
179509 261974
179522 243313
179537 205994
179544 243650
441712 441713
179734 179739
442230 250519
180361 183409
180361 220859
180373 198719
180530 196600
180627 258725
180734 253140
180985 260350
181266 200566
181266 226921
181470 182691
443654 198048
443715 443716
181584 195390
181618 183895
181690 237623
181909 181911
444116 205994
181990 220412
182011 220954
182023 182024
182023 218955
182023 240582
182056 214272
444369 250519
182457 228604
444664 183237
444713 255590
182691 192360
182725 253870
444888 250519
445032 238874
182903 182904
182935 454512
445083 250519
182979 250519
182988 185553
445202 183585
183112 211924
183159 188491
183181 224954
183237 446486
183328 216070
183426 183428
183428 451931
183442 201017
183617 214113
445763 198048
183680 214525
183782 446498
183973 212597
184019 217752
184221 217405
446441 221712
184592 184603
446737 208440
184652 184653
446962 250519
185024 455610
185184 244854
185205 185206
447442 240876
185310 185311
185388 220118
447704 194806
185564 245891
447861 215521
185977 252634
448155 250519
186050 193908
186050 238636
186168 195048
186273 220956
186273 235112
186332 225027
186332 188981
186643 244574
186694 256003
448912 198048
448954 448955
449007 246943
186957 198048
187044 219595
449315 250519
187197 199877
187362 190020
187383 187385
449554 250519
187462 226078
187488 187489
449759 250519
187633 256652
187736 239813
187736 189471
187800 187803
187844 201793
187844 247874
187844 204307
187992 250519
188032 238641
188032 188065
188032 254528
450295 250519
188212 236328
450510 196816
188382 213014
188469 188470
188491 260046
450804 220424
189001 207753
189018 252706
189047 200755
189070 189072
451348 250519
189258 247552
451430 238183
189370 191790
451664 451665
451793 206628
189837 244110
452082 241519
190028 220145
190122 223618
452418 198048
190296 250519
190318 227594
190462 194014
190480 199302
190585 200932
190676 229575
190791 254173
453007 250519
453359 228978
453386 198048
453406 198048
191339 192071
191384 202717
453536 453537
191445 250519
453599 204110
453621 219435
191560 199350
191814 191817
191867 230291
454029 230259
191894 241631
191894 228704
192017 250519
192018 223772
192106 221593
192122 221593
192137 192138
192212 261657
192212 261660
192334 192338
192347 218118
454663 250519
454667 203735
454680 240876
192600 247388
454790 198048
192652 230170
192658 238513
454834 221986
192740 262074
192745 246081
455039 250519
192967 230165
193372 218051
193422 234713
193456 200791
193679 250519
193713 199087
193826 216246
193995 233907
456431 243878
194287 249028
456466 224234
456542 255036
194881 253060
195049 195051
195155 217679
195232 240547
195423 240165
195588 204296
195726 216246
195818 196138
195927 242962
195941 215055
195941 221698
195961 250519
196112 209537
196133 226011
196267 196268
196360 224784
196409 229078
196464 232096
196538 196539
196543 199333
196658 212549
196701 228006
196792 235466
197112 257038
197140 253141
197536 257620
197623 246425
197731 227066
197846 218772
198012 201394
198020 227498
198042 255142
198048 204818
198048 260418
198048 254799
198048 247695
198048 259514
198048 260697
198048 260385
198048 211796
198048 244338
198048 215595
198048 205979
198048 214709
198048 244566
198048 239274
198048 248747
198048 248707
198066 243294
198084 252174
198736 220468
198839 244242
199073 232443
199102 243462
199149 199334
199221 238311
199473 199543
199626 259430
199677 199696
199846 220905
199877 223725
199877 205969
199877 252210
199877 244785
199877 260702
199877 241917
199924 199926
200411 221032
200474 200475
200614 209337
201036 235524
201213 215982
201310 205641
201649 250519
202121 240414
202325 216044
202743 204110
202934 258580
203168 253837
203168 211022
203431 236204
203579 215763
204112 209308
204204 204207
204230 250519
204528 204529
204614 227594
204660 204663
204931 232316
205096 246034
205115 258130
205377 205378
205641 205642
205641 226472
205837 217404
205994 244310
206131 250189
206580 257094
206596 224482
206628 261943
206822 257557
206897 221593
206949 221586
206956 210502
207205 209783
207261 250519
207266 207271
207570 255353
207623 245127
207708 217458
207933 250519
208202 221361
208429 208431
208442 250519
208702 229305
208730 244941
209018 209019
209781 213721
209792 226996
209827 216297
210005 216223
210119 250519
210184 210185
210255 243407
210300 228979
210564 218834
210653 253561
210668 221814
210776 231105
210941 210942
211223 217144
211237 222117
211265 211271
211428 247171
211439 211441
211622 219023
211809 248213
211901 246420
212174 221472
212262 214185
212363 250519
212495 212499
212599 225765
212611 220675
212626 221776
212828 250864
213192 213195
213200 213626
213355 218429
213362 250048
213376 220468
213384 213956
213439 250519
213728 260886
213897 250519
214252 218256
214573 238898
215090 215092
215294 218345
215323 220445
215486 233663
215673 250519
215792 261926
215933 215936
215940 240393
216016 216017
216056 238034
216094 247478
216244 216246
216246 216254
216246 252847
216246 217143
216411 216412
216646 240398
216918 216919
217015 241054
217163 244854
217199 218736
217326 217327
217635 221688
218205 218209
218205 218208
218230 218232
218236 259849
218740 218742
219057 221190
219502 219503
219526 252680
220102 229688
220219 220220
220267 225909
220401 220402
220439 226227
220468 223438
220505 226553
220692 247092
221037 221038
221246 244974
221246 221342
221339 250519
221484 221876
222198 222199
222612 235726
223355 237114
223604 223605
223789 251638
224135 256988
224460 236595
224644 224645
224836 226129
225062 225063
225108 246328
225354 227208
225802 255950
225911 225915
226014 226016
226037 226039
226120 226121
226133 250519
226372 250519
226411 226413
226496 262105
226721 226724
226869 226871
226929 255583
227500 227501
227627 248638
227711 254173
228656 250519
228870 255541
228978 228979
229070 229071
229160 241243
229230 250519
229392 229394
229483 238211
229706 250519
229862 229867
230214 260838
230276 250519
230332 259576
230479 258363
230483 250519
230569 253585
230674 230676
230779 230781
230914 230916
232365 260565
232834 250519
233362 240331
233404 261111
234003 250519
234093 234095
234120 234121
234264 249681
234316 259116
234465 234471
234480 237527
234955 250519
235184 235185
235296 250519
235552 235553
235553 238358
235576 249653
235823 235824
236438 257546
236560 237751
236836 236837
236955 258443
237151 246965
237274 237276
237909 250351
238982 249041
239281 251500
239634 239636
239800 252174
239803 252174
239895 239897
240197 258358
240450 257978
240546 240547
240547 250519
240630 240632
241446 241448
241516 241519
241516 241517
241517 241519
241853 249028
241950 241951
242095 242098
242328 245106
242520 250519
242535 244442
242626 250519
242792 242793
242800 242801
242804 255402
242845 242846
243376 249670
243432 247906
243478 249798
243650 252111
243753 248991
244187 244188
244854 250860
245248 245249
245727 251475
246058 246059
246215 246218
246311 246314
246380 246393
246468 246469
246744 247440
247552 257780
247557 247558
248409 248412
248435 248436
248899 250519
249058 249059
249081 252782
249255 249256
249342 249343
249711 249716
249714 249716
250519 259593
250519 257829
250519 258526
250519 258538
250519 250626
251132 257029
251691 251692
251822 251824
252039 252041
252174 261998
252472 252473
252753 252777
252822 252823
252991 252993
253005 253006
253010 253011
253367 253368
253555 253557
253875 253876
254637 254638
254710 254711
255917 257409
256944 256945
256991 260350
257486 257489
257487 257488
257665 257667
257777 258198
259101 259103
259546 259547
259680 259681
259814 259816
260701 260702
261120 261121
261594 261597
261643 261645
261643 261644
261785 261786
261862 261863
